&control
  calculation = 'scf'
  restart_mode = 'from_scratch'
  tprnfor = .true.
  tstress = .true.
  pseudo_dir = './'
  outdir = './tmp'
/

&system
  ibrav = 2
  celldm(1) = 7.42
  nat = 1
  ntyp = 1
  lspinorb = .true.
  noncolin = .true.
  starting_magnetization = 0.0
  occupations = 'smearing'
  smearing = 'marzari-vanderbilt'
  degauss = 0.02
  ecutwfc = 30.0
/

&electrons
  mixing_beta = 0.7,
  conv_thr =  1.0d-8
/

ATOMIC_SPECIES
Pt  1.0  Pt_LDA_FR.SG15v1.2.UPF

ATOMIC_POSITIONS crystal
Pt  0.0000000   0.00000000   0.0

K_POINTS AUTOMATIC
4 4 4 1 1 1

