<UPF version="2.0.1">
  <PP_INFO>
    Generated using "atomic" code by A. Dal Corso  v.7.1
    Author: ADC
    Generation date:  5Feb2023
    Pseudopotential type: PAW
    Element:  O
    Functional:  SLA  PZ   NOGX NOGC
    Suggested minimum cutoff for wavefunctions:  43. Ry
    Suggested minimum cutoff for charge density: 316. Ry
    The Pseudo was generated with a Scalar-Relativistic Calculation
    Local Potential by smoothing AE potential with Bessel fncs, cutoff radius:   1.1000
    Valence configuration: 
    nl pn  l   occ       Rcut    Rcut US       E pseu
    2S  1  0  2.00      1.000      1.300    -1.745823
    2P  2  1  4.00      0.900      1.450    -0.676082
    Generation configuration:
    2S  1  0  2.00      1.000      1.300    -1.745817
    2S  1  0  0.00      1.000      1.300     1.000000
    2P  2  1  4.00      0.900      1.450    -0.676077
    2P  2  1  0.00      0.900      1.450     0.050000
    Pseudization used: troullier-martins
    <PP_INPUTFILE>
@input
title='O',
zed=8.,
rel=1,
config='[He] 2s2 2p4',
iswitch=3,
dft='LDA'
/
@inputp
lpaw=.true.,
pseudotype=3,
file_pseudopw='O.pz-nl-kjpaw_psl.1.0.0.UPF',
author='ADC',
lloc=-1,
rcloc=1.1
which_augfun='PSQ',
rmatch_augfun_nc=.true.,
nlcc=.true.,
new_core_ps=.true.,
rcore=0.7,
tm=.true.
/
4
2S  1  0  2.00  0.00  1.00  1.30  0.0
2S  1  0  0.00  1.00  1.00  1.30  0.0
2P  2  1  4.00  0.00  0.90  1.45  0.0
2P  2  1  0.00  0.05  0.90  1.45  0.0
    </PP_INPUTFILE>
  </PP_INFO>
    <!-- END OF HUMAN READABLE SECTION -->
  <PP_HEADER generated="Generated using 'atomic' code by A. Dal Corso  v.7.1" author="ADC" date=" 5Feb2023" comment="" element=" O" pseudo_type="PAW" relativistic="scalar" is_ultrasoft="true" is_paw="true" is_coulomb="false" has_so="false" has_wfc="true" has_gipaw="false" paw_as_gipaw="false" core_correction="true" functional=" SLA  PZ   NOGX NOGC" z_valence="6.0000000000000000" total_psenergy="-40.163375111431094" wfc_cutoff="42.504170510549613" rho_cutoff="315.73303164610456" l_max="1" l_max_rho="2" l_local="-1" mesh_size="1095" number_of_wfc="2" number_of_proj="4"/>
  <PP_MESH mesh="1095" dx="1.2500000000000001E-002" xmin="-7.0000000000000000" rmax="100.00000000000000" zmesh="8.0000000000000000">
    <PP_R>
   1.139852456943145E-04   1.154190035836278E-04   1.168707959270728E-04
   1.183408495701567E-04   1.198293942117525E-04   1.213366624399886E-04
   1.228628897685923E-04   1.244083146736889E-04   1.259731786310638E-04
   1.275577261538943E-04   1.291622048309546E-04   1.307868653653023E-04
   1.324319616134513E-04   1.340977506250371E-04   1.357844926829822E-04
   1.374924513441648E-04   1.392218934806004E-04   1.409730893211415E-04
   1.427463124937009E-04   1.445418400680072E-04   1.463599525988968E-04
   1.482009341701516E-04   1.500650724388876E-04   1.519526586805018E-04
   1.538639878341851E-04   1.557993585490062E-04   1.577590732305768E-04
   1.597434380883031E-04   1.617527631832310E-04   1.637873624764950E-04
   1.658475538783739E-04   1.679336592979659E-04   1.700460046934867E-04
   1.721849201232021E-04   1.743507397969998E-04   1.765438021286102E-04
   1.787644497884843E-04   1.810130297573369E-04   1.832898933803629E-04
   1.855953964221359E-04   1.879298991221965E-04   1.902937662513414E-04
   1.926873671686188E-04   1.951110758790415E-04   1.975652710920271E-04
   2.000503362805705E-04   2.025666597411633E-04   2.051146346544658E-04
   2.076946591467417E-04   2.103071363520676E-04   2.129524744753217E-04
   2.156310868559678E-04   2.183433920326400E-04   2.210898138085401E-04
   2.238707813176587E-04   2.266867290918269E-04   2.295380971286134E-04
   2.324253309600751E-04   2.353488817223722E-04   2.383092062262596E-04
   2.413067670284637E-04   2.443420325039584E-04   2.474154769191496E-04
   2.505275805059799E-04   2.536788295369668E-04   2.568697164011824E-04
   2.601007396811912E-04   2.633724042309543E-04   2.666852212547135E-04
   2.700397083868693E-04   2.734363897728606E-04   2.768757961510646E-04
   2.803584649357254E-04   2.838849403009259E-04   2.874557732656170E-04
   2.910715217797142E-04   2.947327508112791E-04   2.984400324347967E-04
   3.021939459205629E-04   3.059950778251979E-04   3.098440220832948E-04
   3.137413801002248E-04   3.176877608461073E-04   3.216837809509625E-04
   3.257300648010623E-04   3.298272446364902E-04   3.339759606499313E-04
   3.381768610867033E-04   3.424306023460460E-04   3.467378490836861E-04
   3.510992743156891E-04   3.555155595236209E-04   3.599873947610304E-04
   3.645154787612710E-04   3.691005190466808E-04   3.737432320391325E-04
   3.784443431719769E-04   3.832045870033929E-04   3.880247073311636E-04
   3.929054573088975E-04   3.978475995637084E-04   4.028519063153783E-04
   4.079191594970185E-04   4.130501508772477E-04   4.182456821839090E-04
   4.235065652293390E-04   4.288336220372168E-04   4.342276849710067E-04
   4.396895968640161E-04   4.452202111510912E-04   4.508203920019663E-04
   4.564910144562929E-04   4.622329645603665E-04   4.680471395055725E-04
   4.739344477685760E-04   4.798958092532704E-04   4.859321554345163E-04
   4.920444295036854E-04   4.982335865160363E-04   5.045005935399448E-04
   5.108464298080083E-04   5.172720868700546E-04   5.237785687480724E-04
   5.303668920930925E-04   5.370380863440425E-04   5.437931938885961E-04
   5.506332702260508E-04   5.575593841322502E-04   5.645726178265832E-04
   5.716740671410841E-04   5.788648416916557E-04   5.861460650514514E-04
   5.935188749264347E-04   6.009844233331482E-04   6.085438767787204E-04
   6.161984164431315E-04   6.239492383637771E-04   6.317975536223518E-04
   6.397445885340814E-04   6.477915848393406E-04   6.559397998976731E-04
   6.641905068842594E-04   6.725449949888526E-04   6.810045696172156E-04
   6.895705525950964E-04   6.982442823747625E-04   7.070271142441385E-04
   7.159204205385731E-04   7.249255908552677E-04   7.340440322704065E-04
   7.432771695590118E-04   7.526264454175699E-04   7.620933206894547E-04
   7.716792745931876E-04   7.813858049535702E-04   7.912144284357184E-04
   8.011666807820479E-04   8.112441170522359E-04   8.214483118662016E-04
   8.317808596501467E-04   8.422433748856834E-04   8.528374923621034E-04
   8.635648674318165E-04   8.744271762690013E-04   8.854261161315157E-04
   8.965634056260874E-04   9.078407849768614E-04   9.192600162973045E-04
   9.308228838655423E-04   9.425311944031595E-04   9.543867773574952E-04
   9.663914851875088E-04   9.785471936532217E-04   9.908558021088118E-04
   1.003319233799395E-03   1.015939436161526E-03   1.028718381127504E-03
   1.041658065433476E-03   1.054760510931441E-03   1.068027764905168E-03
   1.081461900390079E-03   1.095065016497179E-03   1.108839238741032E-03
   1.122786719371889E-03   1.136909637711978E-03   1.151210200496018E-03
   1.165690642216041E-03   1.180353225470526E-03   1.195200241317938E-03
   1.210234009634712E-03   1.225456879477728E-03   1.240871229451376E-03
   1.256479468079198E-03   1.272284034180234E-03   1.288287397250094E-03
   1.304492057846813E-03   1.320900547981582E-03   1.337515431514366E-03
   1.354339304554519E-03   1.371374795866436E-03   1.388624567280288E-03
   1.406091314107958E-03   1.423777765564172E-03   1.441686685192953E-03
   1.459820871299432E-03   1.478183157387077E-03   1.496776412600453E-03
   1.515603542173512E-03   1.534667487883554E-03   1.553971228510887E-03
   1.573517780304250E-03   1.593310197452134E-03   1.613351572559984E-03
   1.633645037133435E-03   1.654193762067618E-03   1.675000958142604E-03
   1.696069876525117E-03   1.717403809276518E-03   1.739006089867202E-03
   1.760880093697467E-03   1.783029238624907E-03   1.805456985498485E-03
   1.828166838699278E-03   1.851162346688050E-03   1.874447102559715E-03
   1.898024744604743E-03   1.921898956877679E-03   1.946073469772761E-03
   1.970552060606811E-03   1.995338554209453E-03   2.020436823520734E-03
   2.045850790196303E-03   2.071584425220157E-03   2.097641749525120E-03
   2.124026834621135E-03   2.150743803231423E-03   2.177796829936689E-03
   2.205190141827395E-03   2.232928019164254E-03   2.261014796047039E-03
   2.289454861091772E-03   2.318252658116486E-03   2.347412686835551E-03
   2.376939503562782E-03   2.406837721923366E-03   2.437112013574749E-03
   2.467767108936598E-03   2.498807797929929E-03   2.530238930725549E-03
   2.562065418501907E-03   2.594292234212468E-03   2.626924413362754E-03
   2.659967054797147E-03   2.693425321495596E-03   2.727304441380347E-03
   2.761609708132805E-03   2.796346482020700E-03   2.831520190735621E-03
   2.867136330241116E-03   2.903200465631447E-03   2.939718232001138E-03
   2.976695335325485E-03   3.014137553352109E-03   3.052050736503754E-03
   3.090440808792425E-03   3.129313768745018E-03   3.168675690340618E-03
   3.208532723959554E-03   3.248891097344418E-03   3.289757116573164E-03
   3.331137167044436E-03   3.373037714475311E-03   3.415465305911571E-03
   3.458426570750697E-03   3.501928221777728E-03   3.545977056214138E-03
   3.590579956779929E-03   3.635743892769060E-03   3.681475921138411E-03
   3.727783187610464E-03   3.774672927789813E-03   3.822152468293762E-03
   3.870229227897112E-03   3.918910718691361E-03   3.968204547258494E-03
   4.018118415859508E-03   4.068660123637929E-03   4.119837567838421E-03
   4.171658745040760E-03   4.224131752409320E-03   4.277264788958254E-03
   4.331066156832628E-03   4.385544262605630E-03   4.440707618592121E-03
   4.496564844178708E-03   4.553124667170529E-03   4.610395925155002E-03
   4.668387566882703E-03   4.727108653665635E-03   4.786568360793083E-03
   4.846775978965251E-03   4.907740915744977E-03   4.969472697027665E-03
   5.031980968529731E-03   5.095275497295778E-03   5.159366173224694E-03
   5.224263010614990E-03   5.289976149729540E-03   5.356515858380023E-03
   5.423892533531297E-03   5.492116702925928E-03   5.561199026729190E-03
   5.631150299194728E-03   5.701981450351176E-03   5.773703547710015E-03
   5.846327797994873E-03   5.919865548892616E-03   5.994328290826434E-03
   6.069727658751247E-03   6.146075433971698E-03   6.223383545982993E-03
   6.301664074334922E-03   6.380929250519302E-03   6.461191459881176E-03
   6.542463243554048E-03   6.624757300419475E-03   6.708086489091267E-03
   6.792463829924687E-03   6.877902507050907E-03   6.964415870437050E-03
   7.052017437972169E-03   7.140720897579412E-03   7.230540109354811E-03
   7.321489107732945E-03   7.413582103679840E-03   7.506833486913493E-03
   7.601257828152247E-03   7.696869881391529E-03   7.793684586209182E-03
   7.891717070099797E-03   7.990982650838446E-03   8.091496838874069E-03
   8.193275339753045E-03   8.296334056573205E-03   8.400689092468720E-03
   8.506356753126275E-03   8.613353549332823E-03   8.721696199555458E-03
   8.831401632553703E-03   8.942486990024652E-03   9.054969629281432E-03
   9.168867125965267E-03   9.284197276791738E-03   9.400978102331554E-03
   9.519227849826291E-03   9.638964996039589E-03   9.760208250144146E-03
   9.882976556645086E-03   1.000728909834007E-02   1.013316529931665E-02
   1.026062482798735E-02   1.038968760016282E-02   1.052037378216380E-02
   1.065270379397211E-02   1.078669831242131E-02   1.092237827442755E-02
   1.105976488026091E-02   1.119887959685809E-02   1.133974416117657E-02
   1.148238058359111E-02   1.162681115133294E-02   1.177305843197209E-02
   1.192114527694371E-02   1.207109482511861E-02   1.222293050641876E-02
   1.237667604547829E-02   1.253235546535047E-02   1.268999309126139E-02
   1.284961355441080E-02   1.301124179582083E-02   1.317490307023304E-02
   1.334062295005453E-02   1.350842732935366E-02   1.367834242790612E-02
   1.385039479529175E-02   1.402461131504297E-02   1.420101920884547E-02
   1.437964604079155E-02   1.456051972168713E-02   1.474366851341282E-02
   1.492912103333995E-02   1.511690625880209E-02   1.530705353162274E-02
   1.549959256270016E-02   1.569455343664966E-02   1.589196661650445E-02
   1.609186294847553E-02   1.629427366677146E-02   1.649923039847878E-02
   1.670676516850381E-02   1.691691040457659E-02   1.712969894231781E-02
   1.734516403036941E-02   1.756333933558977E-02   1.778425894831421E-02
   1.800795738768166E-02   1.823446960702843E-02   1.846383099934961E-02
   1.869607740282939E-02   1.893124510644083E-02   1.916937085561606E-02
   1.941049185798788E-02   1.965464578920346E-02   1.990187079881129E-02
   2.015220551622211E-02   2.040568905674480E-02   2.066236102769832E-02
   2.092226153460032E-02   2.118543118743377E-02   2.145191110699236E-02
   2.172174293130564E-02   2.199496882214519E-02   2.227163147161231E-02
   2.255177410880886E-02   2.283544050659185E-02   2.312267498841303E-02
   2.341352243524463E-02   2.370802829259192E-02   2.400623857759428E-02
   2.430819988621546E-02   2.461395940052426E-02   2.492356489606690E-02
   2.523706474933193E-02   2.555450794530926E-02   2.587594408514410E-02
   2.620142339388723E-02   2.653099672834289E-02   2.686471558501508E-02
   2.720263210815413E-02   2.754479909790425E-02   2.789127001855373E-02
   2.824209900688886E-02   2.859734088065281E-02   2.895705114711111E-02
   2.932128601172473E-02   2.969010238693227E-02   3.006355790104277E-02
   3.044171090724010E-02   3.082462049270083E-02   3.121234648782671E-02
   3.160494947559331E-02   3.200249080101626E-02   3.240503258073645E-02
   3.281263771272593E-02   3.322536988611585E-02   3.364329359114798E-02
   3.406647412925158E-02   3.449497762324665E-02   3.492887102767593E-02
   3.536822213926663E-02   3.581309960752376E-02   3.626357294545692E-02
   3.671971254044162E-02   3.718158966521759E-02   3.764927648902529E-02
   3.812284608888241E-02   3.860237246100249E-02   3.908793053235673E-02
   3.957959617238167E-02   4.007744620483386E-02   4.058155841979372E-02
   4.109201158582052E-02   4.160888546225996E-02   4.213226081170681E-02
   4.266221941262424E-02   4.319884407212182E-02   4.374221863889443E-02
   4.429242801632360E-02   4.484955817574397E-02   4.541369616987644E-02
   4.598493014643029E-02   4.656334936187663E-02   4.714904419539463E-02
   4.774210616299364E-02   4.834262793181269E-02   4.895070333459987E-02
   4.956642738437412E-02   5.018989628927085E-02   5.082120746757492E-02
   5.146045956294235E-02   5.210775245981355E-02   5.276318729902069E-02
   5.342686649359085E-02   5.409889374474844E-02   5.477937405811870E-02
   5.546841376013498E-02   5.616612051465271E-02   5.687260333977171E-02
   5.758797262487076E-02   5.831234014785609E-02   5.904581909262684E-02
   5.978852406676052E-02   6.054057111942033E-02   6.130207775948830E-02
   6.207316297392623E-02   6.285394724636761E-02   6.364455257594366E-02
   6.444510249634554E-02   6.525572209512705E-02   6.607653803324971E-02
   6.690767856487378E-02   6.774927355739840E-02   6.860145451175333E-02
   6.946435458294646E-02   7.033810860086952E-02   7.122285309136538E-02
   7.211872629756085E-02   7.302586820146700E-02   7.394442054585193E-02
   7.487452685638822E-02   7.581633246407918E-02   7.676998452796724E-02
   7.773563205812754E-02   7.871342593895130E-02   7.970351895272172E-02
   8.070606580348651E-02   8.172122314123093E-02   8.274914958635428E-02
   8.379000575445496E-02   8.484395428142685E-02   8.591115984887153E-02
   8.699178920983026E-02   8.808601121483921E-02   8.919399683831286E-02
   9.031591920525908E-02   9.145195361833022E-02   9.260227758521475E-02
   9.376707084637276E-02   9.494651540312112E-02   9.614079554607138E-02
   9.735009788392561E-02   9.857461137263460E-02   9.981452734492216E-02
   1.010700395401816E-01   1.023413441347478E-01   1.036286397725500E-01
   1.049321275961509E-01   1.062520112781748E-01   1.075884970531323E-01
   1.089417937496448E-01   1.103121128230744E-01   1.116996683885645E-01
   1.131046772544950E-01   1.145273589563598E-01   1.159679357910692E-01
   1.174266328516845E-01   1.189036780625893E-01   1.203993022151028E-01
   1.219137390035416E-01   1.234472250617353E-01   1.250000000000000E-01
   1.265723064425793E-01   1.281643900655537E-01   1.297764996352282E-01
   1.314088870470031E-01   1.330618073647324E-01   1.347355188605790E-01
   1.364302830553690E-01   1.381463647594560E-01   1.398840321140977E-01
   1.416435566333533E-01   1.434252132465091E-01   1.452292803410354E-01
   1.470560398060864E-01   1.489057770765449E-01   1.507787811776226E-01
   1.526753447700213E-01   1.545957641956607E-01   1.565403395239831E-01
   1.585093745988400E-01   1.605031770859677E-01   1.625220585210614E-01
   1.645663343584527E-01   1.666363240204004E-01   1.687323509470005E-01
   1.708547426467245E-01   1.730038307475940E-01   1.751799510489967E-01
   1.773834435741573E-01   1.796146526232657E-01   1.818739268272752E-01
   1.841616192023770E-01   1.864780872051588E-01   1.888236927884592E-01
   1.911988024579225E-01   1.936037873292666E-01   1.960390231862711E-01
   1.985048905394930E-01   2.010017746857230E-01   2.035300657681889E-01
   2.060901588375160E-01   2.086824539134554E-01   2.113073560473865E-01
   2.139652753856082E-01   2.166566272334245E-01   2.193818321200373E-01
   2.221413158642548E-01   2.249355096410262E-01   2.277648500488137E-01
   2.306297791778126E-01   2.335307446790278E-01   2.364681998342213E-01
   2.394426036267371E-01   2.424544208132194E-01   2.455041219962311E-01
   2.485921836977865E-01   2.517190884338096E-01   2.548853247895270E-01
   2.580913874958110E-01   2.613377775064821E-01   2.646250020765843E-01
   2.679535748416449E-01   2.713240158979304E-01   2.747368518837129E-01
   2.781926160615587E-01   2.816918484016511E-01   2.852350956661630E-01
   2.888229114946881E-01   2.924558564907490E-01   2.961344983093927E-01
   2.998594117458873E-01   3.036311788255361E-01   3.074503888946188E-01
   3.113176387124790E-01   3.152335325447687E-01   3.191986822578659E-01
   3.232137074144809E-01   3.272792353704627E-01   3.313959013728260E-01
   3.355643486590090E-01   3.397852285573806E-01   3.440592005890134E-01
   3.483869325707314E-01   3.527691007194624E-01   3.572063897578957E-01
   3.616994930214701E-01   3.662491125667131E-01   3.708559592809336E-01
   3.755207529933040E-01   3.802442225873332E-01   3.850271061147539E-01
   3.898701509108494E-01   3.947741137112211E-01   3.997397607700343E-01
   4.047678679797454E-01   4.098592209923342E-01   4.150146153420689E-01
   4.202348565698038E-01   4.255207603488522E-01   4.308731526124346E-01
   4.362928696827302E-01   4.417807584015592E-01   4.473376762626975E-01
   4.529644915458676E-01   4.586620834524058E-01   4.644313422426380E-01
   4.702731693749893E-01   4.761884776468328E-01   4.821781913371216E-01
   4.882432463508068E-01   4.943845903650722E-01   5.006031829774161E-01
   5.068999958555845E-01   5.132760128894014E-01   5.197322303445013E-01
   5.262696570179950E-01   5.328893143961028E-01   5.395922368137556E-01
   5.463794716162196E-01   5.532520793227422E-01   5.602111337922581E-01
   5.672577223911884E-01   5.743929461633362E-01   5.816179200019336E-01
   5.889337728238431E-01   5.963416477459503E-01   6.038427022637854E-01
   6.114381084323758E-01   6.191290530493891E-01   6.269167378405703E-01
   6.348023796475102E-01   6.427872106177864E-01   6.508724783974813E-01
   6.590594463261362E-01   6.673493936341475E-01   6.757436156426458E-01
   6.842434239659007E-01   6.928501467162530E-01   7.015651287116443E-01
   7.103897316857435E-01   7.193253345007163E-01   7.283733333626849E-01
   7.375351420398772E-01   7.468121920835402E-01   7.562059330516188E-01
   7.657178327352483E-01   7.753493773881089E-01   7.851020719586458E-01
   7.949774403252287E-01   8.049770255342580E-01   8.151023900412641E-01
   8.253551159550543E-01   8.357368052849090E-01   8.462490801909092E-01
   8.568935832373978E-01   8.676719776496294E-01   8.785859475736626E-01
   8.896371983394996E-01   9.008274567275582E-01   9.121584712384796E-01
   9.236320123663313E-01   9.352498728752607E-01   9.470138680796061E-01
   9.589258361275534E-01   9.709876382883472E-01   9.832011592431115E-01
   9.955683073793475E-01   1.008091015089109E+00   1.020771239070956E+00
   1.033610960635684E+00   1.046612186015908E+00   1.059776946679548E+00
   1.073107299647237E+00   1.086605327813750E+00   1.100273140273452E+00
   1.114112872649842E+00   1.128126687429266E+00   1.142316774298791E+00
   1.156685350488361E+00   1.171234661117242E+00   1.185966979544816E+00
   1.200884607725814E+00   1.215989876569986E+00   1.231285146306323E+00
   1.246772806851841E+00   1.262455278185007E+00   1.278335010723876E+00
   1.294414485708962E+00   1.310696215590946E+00   1.327182744423251E+00
   1.343876648259544E+00   1.360780535556269E+00   1.377897047580201E+00
   1.395228858821171E+00   1.412778677409949E+00   1.430549245541390E+00
   1.448543339902925E+00   1.466763772108402E+00   1.485213389137424E+00
   1.503895073780192E+00   1.522811745087934E+00   1.541966358829033E+00
   1.561361907950852E+00   1.581001423047403E+00   1.600887972832880E+00
   1.621024664621142E+00   1.641414644811254E+00   1.662061099379099E+00
   1.682967254375214E+00   1.704136376428846E+00   1.725571773258387E+00
   1.747276794188206E+00   1.769254830671976E+00   1.791509316822619E+00
   1.814043729948866E+00   1.836861591098618E+00   1.859966465609106E+00
   1.883361963663974E+00   1.907051740857397E+00   1.931039498765253E+00
   1.955328985523521E+00   1.979923996413929E+00   2.004828374456959E+00
   2.030046011012357E+00   2.055580846387133E+00   2.081436870451268E+00
   2.107618123261131E+00   2.134128695690733E+00   2.160972730070958E+00
   2.188154420836786E+00   2.215678015182705E+00   2.243547813726332E+00
   2.271768171180383E+00   2.300343497033134E+00   2.329278256237377E+00
   2.358576969908110E+00   2.388244216028959E+00   2.418284630167477E+00
   2.448702906199502E+00   2.479503797042542E+00   2.510692115398458E+00
   2.542272734505453E+00   2.574250588899504E+00   2.606630675185429E+00
   2.639418052817578E+00   2.672617844890418E+00   2.706235238939009E+00
   2.740275487749559E+00   2.774743910180208E+00   2.809645891992078E+00
   2.844986886690841E+00   2.880772416378825E+00   2.917008072617840E+00
   2.953699517302906E+00   2.990852483546894E+00   3.028472776576372E+00
   3.066566274638672E+00   3.105138929920356E+00   3.144196769477300E+00
   3.183745896176387E+00   3.223792489649133E+00   3.264342807257249E+00
   3.305403185070350E+00   3.346980038856020E+00   3.389079865082238E+00
   3.431709241932512E+00   3.474874830333711E+00   3.518583374996832E+00
   3.562841705470915E+00   3.607656737210129E+00   3.653035472654368E+00
   3.698985002323373E+00   3.745512505924628E+00   3.792625253475245E+00
   3.840330606437867E+00   3.888636018870958E+00   3.937549038593496E+00
   3.987077308364313E+00   4.037228567076340E+00   4.088010650965772E+00
   4.139431494836539E+00   4.191499133300121E+00   4.244221702030944E+00
   4.297607439037654E+00   4.351664685950256E+00   4.406401889323567E+00
   4.461827601956989E+00   4.517950484230867E+00   4.574779305459755E+00
   4.632322945262574E+00   4.690590394950125E+00   4.749590758929975E+00
   4.809333256129017E+00   4.869827221434003E+00   4.931082107150069E+00
   4.993107484477742E+00   5.055913045008429E+00   5.119508602238725E+00
   5.183904093103852E+00   5.249109579530251E+00   5.315135250007848E+00
   5.381991421181995E+00   5.449688539465439E+00   5.518237182670661E+00
   5.587648061662607E+00   5.657932022032345E+00   5.729100045791689E+00
   5.801163253089122E+00   5.874132903947419E+00   5.948020400022963E+00
   6.022837286387352E+00   6.098595253331307E+00   6.175306138191273E+00
   6.252981927199102E+00   6.331634757354833E+00   6.411276918323213E+00
   6.491920854353936E+00   6.573579166226057E+00   6.656264613216962E+00
   6.739990115095946E+00   6.824768754143030E+00   6.910613777193061E+00
   6.997538597705519E+00   7.085556797860484E+00   7.174682130680780E+00
   7.264928522180998E+00   7.356310073543432E+00   7.448841063321374E+00
   7.542535949670257E+00   7.637409372606672E+00   7.733476156295986E+00
   7.830751311368615E+00   7.929250037265418E+00   8.028987724612744E+00
   8.129979957627127E+00   8.232242516550462E+00   8.335791380115651E+00
   8.440642728043269E+00   8.546812943569778E+00   8.654318616007330E+00
   8.763176543335982E+00   8.873403734828367E+00   8.985017413707384E+00
   9.098035019837468E+00   9.212474212449481E+00   9.328352872900114E+00
   9.445689107465835E+00   9.564501250171986E+00   9.684807865657621E+00
   9.806627752076144E+00   9.929979944032667E+00   1.005488371555816E+01
   1.018135858312102E+01   1.030942430867664E+01   1.043910090275516E+01
   1.057040862758825E+01   1.070336800027508E+01   1.083799979598811E+01
   1.097432505121937E+01   1.111236506706729E+01   1.125214141256523E+01
   1.139367592805156E+01   1.153699072858224E+01   1.168210820738647E+01
   1.182905103936552E+01   1.197784218463586E+01   1.212850489211668E+01
   1.228106270316251E+01   1.243553945524174E+01   1.259195928566114E+01
   1.275034663533746E+01   1.291072625261636E+01   1.307312319713928E+01
   1.323756284375925E+01   1.340407088650557E+01   1.357267334259870E+01
   1.374339655651545E+01   1.391626720410529E+01   1.409131229675867E+01
   1.426855918562738E+01   1.444803556589846E+01   1.462976948112149E+01
   1.481378932759042E+01   1.500012385878069E+01   1.518880218984187E+01
   1.537985380214707E+01   1.557330854789943E+01   1.576919665479652E+01
   1.596754873075363E+01   1.616839576868612E+01   1.637176915135232E+01
   1.657770065625708E+01   1.678622246061694E+01   1.699736714638814E+01
   1.721116770535734E+01   1.742765754429690E+01   1.764687049018463E+01
   1.786884079548925E+01   1.809360314352264E+01   1.832119265385890E+01
   1.855164488782207E+01   1.878499585404262E+01   1.902128201408370E+01
   1.926054028813861E+01   1.950280806079939E+01   1.974812318689843E+01
   1.999652399742333E+01   2.024804930550604E+01   2.050273841248775E+01
   2.076063111405951E+01   2.102176770648068E+01   2.128618899287514E+01
   2.155393628960679E+01   2.182505143273556E+01   2.209957678455406E+01
   2.237755524020708E+01   2.265903023439392E+01   2.294404574815500E+01
   2.323264631574429E+01   2.352487703158756E+01   2.382078355732875E+01
   2.412041212896457E+01   2.442380956406887E+01   2.473102326910822E+01
   2.504210124684898E+01   2.535709210385811E+01   2.567604505809792E+01
   2.599900994661633E+01   2.632603723333434E+01   2.665717801693076E+01
   2.699248403882676E+01   2.733200769127052E+01   2.767580202552340E+01
   2.802392076014966E+01   2.837641828940976E+01   2.873334969175986E+01
   2.909477073845779E+01   2.946073790227733E+01   2.983130836633248E+01
   3.020654003301210E+01   3.058649153302755E+01   3.097122223457379E+01
   3.136079225260557E+01   3.175526245823091E+01   3.215469448822187E+01
   3.255915075464585E+01   3.296869445461741E+01   3.338338958017277E+01
   3.380330092826912E+01   3.422849411090882E+01   3.465903556539175E+01
   3.509499256469619E+01   3.553643322799012E+01   3.598342653127542E+01
   3.643604231816502E+01   3.689435131079654E+01   3.735842512088257E+01
   3.782833626089998E+01   3.830415815542057E+01   3.878596515258330E+01
   3.927383253571178E+01   3.976783653507726E+01   4.026805433980957E+01
   4.077456410995854E+01   4.128744498870611E+01   4.180677711473313E+01
   4.233264163474094E+01   4.286512071613055E+01   4.340429755984189E+01
   4.395025641335360E+01   4.450308258384739E+01   4.506286245153721E+01
   4.562968348316611E+01   4.620363424567365E+01   4.678480442003402E+01
   4.737328481526944E+01   4.796916738263903E+01   4.857254523000610E+01
   4.918351263638706E+01   4.980216506668199E+01   5.042859918659189E+01
   5.106291287772257E+01   5.170520525287860E+01   5.235557667155054E+01
   5.301412875559557E+01   5.368096440511674E+01   5.435618781454108E+01
   5.503990448889986E+01   5.573222126031470E+01   5.643324630468944E+01
   5.714308915861362E+01   5.786186073647745E+01   5.858967334780213E+01
   5.932664071478911E+01   6.007287799008867E+01   6.082850177479340E+01
   6.159363013665710E+01   6.236838262854275E+01   6.315288030710369E+01
   6.394724575169803E+01   6.475160308354275E+01   6.556607798510755E+01
   6.639079771975264E+01   6.722589115161468E+01   6.807148876574118E+01
   6.892772268847985E+01   6.979472670812325E+01   7.067263629581315E+01
   7.156158862670898E+01   7.246172260142080E+01   7.337317886771361E+01
   7.429609984248353E+01   7.523062973401028E+01   7.617691456449101E+01
   7.713510219285546E+01   7.810534233787011E+01   7.908778660153176E+01
   8.008258849275511E+01   8.108990345135987E+01   8.210988887235747E+01
   8.314270413054523E+01   8.418851060540868E+01   8.524747170633694E+01
   8.631975289815679E+01   8.740552172698573E+01   8.850494784641242E+01
   8.961820304400499E+01   9.074546126815267E+01   9.188689865524674E+01
   9.304269355720088E+01   9.421302656932016E+01   9.539808055851896E+01
   9.659804069189374E+01   9.781309446565707E+01   9.904343173443276E+01
    </PP_R>
    <PP_RAB>
   1.424815571178932E-06   1.442737544795347E-06   1.460884949088410E-06
   1.479260619626959E-06   1.497867427646906E-06   1.516708280499858E-06
   1.535786122107404E-06   1.555103933421111E-06   1.574664732888298E-06
   1.594471576923679E-06   1.614527560386933E-06   1.634835817066279E-06
   1.655399520168141E-06   1.676221882812964E-06   1.697306158537278E-06
   1.718655641802060E-06   1.740273668507505E-06   1.762163616514269E-06
   1.784328906171262E-06   1.806773000850090E-06   1.829499407486210E-06
   1.852511677126895E-06   1.875813405486095E-06   1.899408233506273E-06
   1.923299847927314E-06   1.947491981862577E-06   1.971988415382210E-06
   1.996792976103788E-06   2.021909539790388E-06   2.047342030956188E-06
   2.073094423479674E-06   2.099170741224573E-06   2.125575058668584E-06
   2.152311501540027E-06   2.179384247462498E-06   2.206797526607627E-06
   2.234555622356054E-06   2.262662871966712E-06   2.291123667254536E-06
   2.319942455276699E-06   2.349123739027457E-06   2.378672078141768E-06
   2.408592089607735E-06   2.438888448488019E-06   2.469565888650339E-06
   2.500629203507132E-06   2.532083246764542E-06   2.563932933180822E-06
   2.596183239334272E-06   2.628839204400846E-06   2.661905930941522E-06
   2.695388585699598E-06   2.729292400407999E-06   2.763622672606751E-06
   2.798384766470734E-06   2.833584113647836E-06   2.869226214107668E-06
   2.905316637000939E-06   2.941861021529652E-06   2.978865077828245E-06
   3.016334587855796E-06   3.054275406299480E-06   3.092693461489370E-06
   3.131594756324749E-06   3.170985369212085E-06   3.210871455014780E-06
   3.251259246014890E-06   3.292155052886929E-06   3.333565265683919E-06
   3.375496354835867E-06   3.417954872160758E-06   3.460947451888308E-06
   3.504480811696568E-06   3.548561753761574E-06   3.593197165820213E-06
   3.638394022246428E-06   3.684159385140989E-06   3.730500405434959E-06
   3.777424324007037E-06   3.824938472814974E-06   3.873050276041185E-06
   3.921767251252811E-06   3.971097010576341E-06   4.021047261887031E-06
   4.071625810013278E-06   4.122840557956128E-06   4.174699508124142E-06
   4.227210763583792E-06   4.280382529325576E-06   4.334223113546076E-06
   4.388740928946114E-06   4.443944494045262E-06   4.499842434512880E-06
   4.556443484515887E-06   4.613756488083511E-06   4.671790400489157E-06
   4.730554289649712E-06   4.790057337542412E-06   4.850308841639545E-06
   4.911318216361220E-06   4.973094994546355E-06   5.035648828942229E-06
   5.098989493712732E-06   5.163126885965597E-06   5.228071027298863E-06
   5.293832065366737E-06   5.360420275465210E-06   5.427846062137584E-06
   5.496119960800201E-06   5.565252639388640E-06   5.635254900024580E-06
   5.706137680703662E-06   5.777912057004582E-06   5.850589243819657E-06
   5.924180597107200E-06   5.998697615665881E-06   6.074151942931454E-06
   6.150555368796068E-06   6.227919831450454E-06   6.306257419249310E-06
   6.385580372600104E-06   6.465901085875683E-06   6.547232109350906E-06
   6.629586151163657E-06   6.712976079300532E-06   6.797414923607452E-06
   6.882915877825635E-06   6.969492301653128E-06   7.057157722832291E-06
   7.145925839263552E-06   7.235810521145697E-06   7.326825813143143E-06
   7.418985936580434E-06   7.512305291664353E-06   7.606798459734005E-06
   7.702480205539145E-06   7.799365479547215E-06   7.897469420279397E-06
   7.996807356676018E-06   8.097394810491758E-06   8.199247498720913E-06
   8.302381336053244E-06   8.406812437360658E-06   8.512557120215196E-06
   8.619631907438707E-06   8.728053529684530E-06   8.837838928051731E-06
   8.949005256732165E-06   9.061569885690847E-06   9.175550403380082E-06
   9.290964619487647E-06   9.407830567719623E-06   9.526166508618185E-06
   9.645990932414846E-06   9.767322561919628E-06   9.890180355446481E-06
   1.001458350977560E-05   1.014055146315295E-05   1.026810389832752E-05
   1.039726074562683E-05   1.052804218607104E-05   1.066046865452629E-05
   1.079456084289771E-05   1.093033970336252E-05   1.106782645164395E-05
   1.120704257032609E-05   1.134800981221077E-05   1.149075020371631E-05
   1.163528604831928E-05   1.178163993003950E-05   1.192983471696869E-05
   1.207989356484386E-05   1.223183992066527E-05   1.238569752636015E-05
   1.254149042249244E-05   1.269924295201908E-05   1.285897976409380E-05
   1.302072581791845E-05   1.318450638664302E-05   1.335034706131460E-05
   1.351827375487599E-05   1.368831270621473E-05   1.386049048426290E-05
   1.403483399214862E-05   1.421137047139973E-05   1.439012750620022E-05
   1.457113302770051E-05   1.475441531838158E-05   1.494000301647423E-05
   1.512792512043390E-05   1.531821099347161E-05   1.551089036814221E-05
   1.570599335098998E-05   1.590355042725292E-05   1.610359246562617E-05
   1.630615072308516E-05   1.651125684976977E-05   1.671894289392958E-05
   1.692924130693149E-05   1.714218494833045E-05   1.735780709100360E-05
   1.757614142634948E-05   1.779722206955215E-05   1.802108356491191E-05
   1.824776089124290E-05   1.847728946733847E-05   1.870970515750566E-05
   1.894504427716891E-05   1.918334359854443E-05   1.942464035638608E-05
   1.966897225380312E-05   1.991637746815167E-05   2.016689465699980E-05
   2.042056296416794E-05   2.067742202584522E-05   2.093751197678255E-05
   2.120087345656396E-05   2.146754761595648E-05   2.173757612334003E-05
   2.201100117121834E-05   2.228786548281134E-05   2.256821231873106E-05
   2.285208548374097E-05   2.313952933360063E-05   2.343058878199644E-05
   2.372530930755929E-05   2.402373696097099E-05   2.432591837215952E-05
   2.463190075758514E-05   2.494173192761816E-05   2.525546029400918E-05
   2.557313487745379E-05   2.589480531525196E-05   2.622052186906400E-05
   2.655033543276419E-05   2.688429754039279E-05   2.722246037420862E-05
   2.756487677284244E-05   2.791160023955318E-05   2.826268495058799E-05
   2.861818576364716E-05   2.897815822645607E-05   2.934265858544439E-05
   2.971174379453478E-05   3.008547152404208E-05   3.046390016968437E-05
   3.084708886170747E-05   3.123509747412411E-05   3.162798663406936E-05
   3.202581773127384E-05   3.242865292765585E-05   3.283655516703442E-05
   3.324958818496434E-05   3.366781651869496E-05   3.409130551725433E-05
   3.452012135166007E-05   3.495433102525876E-05   3.539400238419527E-05
   3.583920412801396E-05   3.629000582039309E-05   3.674647790001423E-05
   3.720869169156856E-05   3.767671941690137E-05   3.815063420629693E-05
   3.863051010990531E-05   3.911642210931274E-05   3.960844612925773E-05
   4.010665904949443E-05   4.061113871680524E-05   4.112196395716455E-05
   4.163921458805545E-05   4.216297143094138E-05   4.269331632389464E-05
   4.323033213438372E-05   4.377410277222160E-05   4.432471320267672E-05
   4.488224945974912E-05   4.544679865961325E-05   4.601844901423014E-05
   4.659728984513080E-05   4.718341159737266E-05   4.777690585367203E-05
   4.837786534871390E-05   4.898638398364202E-05   4.960255684073118E-05
   5.022648019824386E-05   5.085825154547411E-05   5.149796959798026E-05
   5.214573431300950E-05   5.280164690511650E-05   5.346580986197818E-05
   5.413832696040785E-05   5.481930328257037E-05   5.550884523240151E-05
   5.620706055223386E-05   5.691405833963162E-05   5.762994906443753E-05
   5.835484458603378E-05   5.908885817082044E-05   5.983210450991353E-05
   6.058469973706564E-05   6.134676144681221E-05   6.211840871284581E-05
   6.289976210662165E-05   6.369094371619722E-05   6.449207716530867E-05
   6.530328763268737E-05   6.612470187161925E-05   6.695644822975030E-05
   6.779865666914121E-05   6.865145878657410E-05   6.951498783411488E-05
   7.038937873993410E-05   7.127476812938969E-05   7.217129434637519E-05
   7.307909747493592E-05   7.399831936115771E-05   7.492910363533043E-05
   7.587159573439059E-05   7.682594292464622E-05   7.779229432478742E-05
   7.877080092918653E-05   7.976161563149129E-05   8.076489324851471E-05
   8.178079054442560E-05   8.280946625524344E-05   8.385108111364084E-05
   8.490579787405859E-05   8.597378133813635E-05   8.705519838046312E-05
   8.815021797465211E-05   8.925901121974264E-05   9.038175136693514E-05
   9.151861384666182E-05   9.266977629599800E-05   9.383541858641867E-05
   9.501572285190309E-05   9.621087351739412E-05   9.742105732761478E-05
   9.864646337624746E-05   9.988728313548058E-05   1.011437104859259E-04
   1.024159417469131E-04   1.037041757071651E-04   1.050086136558590E-04
   1.063294594140784E-04   1.076669193666603E-04   1.090212024944432E-04
   1.103925204069213E-04   1.117810873753082E-04   1.131871203660179E-04
   1.146108390745658E-04   1.160524659598967E-04   1.175122262791444E-04
   1.189903481228286E-04   1.204870624504949E-04   1.220026031268018E-04
   1.235372069580636E-04   1.250911137292509E-04   1.266645662414582E-04
   1.282578103498419E-04   1.298710950020353E-04   1.315046722770475E-04
   1.331587974246514E-04   1.348337289052664E-04   1.365297284303444E-04
   1.382470610032614E-04   1.399859949607261E-04   1.417468020147071E-04
   1.435297572948889E-04   1.453351393916617E-04   1.471632303996511E-04
   1.490143159617964E-04   1.508886853139826E-04   1.527866313302345E-04
   1.547084505684786E-04   1.566544433168809E-04   1.586249136407673E-04
   1.606201694301351E-04   1.626405224477604E-04   1.646862883779130E-04
   1.667577868756816E-04   1.688553416169208E-04   1.709792803488265E-04
   1.731299349411468E-04   1.753076414380371E-04   1.775127401105684E-04
   1.797455755098944E-04   1.820064965210891E-04   1.842958564176603E-04
   1.866140129167494E-04   1.889613282350261E-04   1.913381691452843E-04
   1.937449070337520E-04   1.961819179581208E-04   1.986495827063056E-04
   2.011482868559441E-04   2.036784208346433E-04   2.062403799809848E-04
   2.088345646062977E-04   2.114613800572074E-04   2.141212367789726E-04
   2.168145503796177E-04   2.195417416948721E-04   2.223032368539276E-04
   2.250994673460207E-04   2.279308700878554E-04   2.307978874918701E-04
   2.337009675353674E-04   2.366405638305104E-04   2.396171356952008E-04
   2.426311482248485E-04   2.456830723650432E-04   2.487733849851412E-04
   2.519025689527764E-04   2.550711132093100E-04   2.582795128462290E-04
   2.615282691825040E-04   2.648178898429222E-04   2.681488888374045E-04
   2.715217866413205E-04   2.749371102768149E-04   2.783953933951539E-04
   2.818971763601107E-04   2.854430063323981E-04   2.890334373551629E-04
   2.926690304405579E-04   2.963503536573990E-04   3.000779822199285E-04
   3.038524985776933E-04   3.076744925065532E-04   3.115445612008362E-04
   3.154633093666492E-04   3.194313493163658E-04   3.234493010643013E-04
   3.275177924235903E-04   3.316374591042861E-04   3.358089448126885E-04
   3.400329013519266E-04   3.443099887238031E-04   3.486408752319216E-04
   3.530262375861108E-04   3.574667610081602E-04   3.619631393388889E-04
   3.665160751465591E-04   3.711262798366534E-04   3.757944737630347E-04
   3.805213863405012E-04   3.853077561587603E-04   3.901543310978340E-04
   3.950618684449164E-04   4.000311350127033E-04   4.050629072592057E-04
   4.101579714090741E-04   4.153171235764481E-04   4.205411698893498E-04
   4.258309266156448E-04   4.311872202905832E-04   4.366108878459491E-04
   4.421027767408329E-04   4.476637450940471E-04   4.532946618182115E-04
   4.589964067555203E-04   4.647698708152199E-04   4.706159561128161E-04
   4.765355761110301E-04   4.825296557625311E-04   4.885991316544592E-04
   4.947449521547709E-04   5.009680775604233E-04   5.072694802474214E-04
   5.136501448227566E-04   5.201110682782494E-04   5.266532601463351E-04
   5.332777426578031E-04   5.399855509015227E-04   5.467777329861804E-04
   5.536553502040450E-04   5.606194771967997E-04   5.676712021234555E-04
   5.748116268303787E-04   5.820418670234579E-04   5.893630524424330E-04
   5.967763270374205E-04   6.042828491476587E-04   6.118837916824984E-04
   6.195803423046766E-04   6.273737036158857E-04   6.352650933446865E-04
   6.432557445367794E-04   6.513469057476694E-04   6.595398412377587E-04
   6.678358311698857E-04   6.762361718093556E-04   6.847421757264837E-04
   6.933551720016873E-04   7.020765064331589E-04   7.109075417471465E-04
   7.198496578108846E-04   7.289042518482011E-04   7.380727386578355E-04
   7.473565508345065E-04   7.567571389927542E-04   7.662759719936037E-04
   7.759145371740779E-04   7.856743405795952E-04   7.955569071992958E-04
   8.055637812043192E-04   8.156965261890882E-04   8.259567254156214E-04
   8.363459820609223E-04   8.468659194674800E-04   8.575181813969166E-04
   8.683044322868308E-04   8.792263575108690E-04   8.902856636420673E-04
   9.014840787195107E-04   9.128233525183375E-04   9.243052568231492E-04
   9.359315857048528E-04   9.477041558009898E-04   9.596248065995906E-04
   9.716954007265943E-04   9.839178242368911E-04   9.962939869090216E-04
   1.008825822543581E-03   1.021515289265387E-03   1.034364369829428E-03
   1.047375071930687E-03   1.060549428517836E-03   1.073889498110894E-03
   1.087397365122878E-03   1.101075140185490E-03   1.114924960478911E-03
   1.128948990065739E-03   1.143149420229128E-03   1.157528469815184E-03
   1.172088385579660E-03   1.186831442539014E-03   1.201759944325892E-03
   1.216876223549070E-03   1.232182642157933E-03   1.247681591811527E-03
   1.263375494252270E-03   1.279266801684348E-03   1.295357997156876E-03
   1.311651594951887E-03   1.328150140977185E-03   1.344856213164154E-03
   1.361772421870560E-03   1.378901410288430E-03   1.396245854857056E-03
   1.413808465681187E-03   1.431591986954497E-03   1.449599197388365E-03
   1.467832910646056E-03   1.486295975782366E-03   1.504991277688785E-03
   1.523921737544271E-03   1.543090313271691E-03   1.562500000000000E-03
   1.582153830532242E-03   1.602054875819421E-03   1.622206245440352E-03
   1.642611088087539E-03   1.663272592059155E-03   1.684193985757237E-03
   1.705378538192113E-03   1.726829559493200E-03   1.748550401426221E-03
   1.770544457916916E-03   1.792815165581363E-03   1.815366004262943E-03
   1.838200497576080E-03   1.861322213456811E-03   1.884734764720282E-03
   1.908441809625266E-03   1.932447052445758E-03   1.956754244049789E-03
   1.981367182485501E-03   2.006289713574596E-03   2.031525731513268E-03
   2.057079179480659E-03   2.082954050255006E-03   2.109154386837506E-03
   2.135684283084057E-03   2.162547884344924E-03   2.189749388112459E-03
   2.217293044676966E-03   2.245183157790821E-03   2.273424085340940E-03
   2.302020240029712E-03   2.330976090064486E-03   2.360296159855740E-03
   2.389985030724031E-03   2.420047341615833E-03   2.450487789828390E-03
   2.481311131743663E-03   2.512522183571537E-03   2.544125822102361E-03
   2.576126985468951E-03   2.608530673918192E-03   2.641341950592331E-03
   2.674565942320102E-03   2.708207840417807E-03   2.742272901500467E-03
   2.776766448303186E-03   2.811693870512827E-03   2.847060625610172E-03
   2.882872239722658E-03   2.919134308487848E-03   2.955852497927766E-03
   2.993032545334214E-03   3.030680260165243E-03   3.068801524952888E-03
   3.107402296222331E-03   3.146488605422621E-03   3.186066559869087E-03
   3.226142343697637E-03   3.266722218831027E-03   3.307812525957304E-03
   3.349419685520562E-03   3.391550198724130E-03   3.434210648546411E-03
   3.477407700769483E-03   3.521148105020638E-03   3.565438695827038E-03
   3.610286393683601E-03   3.655698206134363E-03   3.701681228867409E-03
   3.748242646823591E-03   3.795389735319201E-03   3.843129861182736E-03
   3.891470483905988E-03   3.940419156809609E-03   3.989983528223323E-03
   4.040171342681011E-03   4.090990442130784E-03   4.142448767160325E-03
   4.194554358237613E-03   4.247315356967258E-03   4.300740007362668E-03
   4.354836657134143E-03   4.409613758993280E-03   4.465079871973697E-03
   4.521243662768377E-03   4.578113907083914E-03   4.635699491011670E-03
   4.694009412416301E-03   4.753052782341665E-03   4.812838826434424E-03
   4.873376886385618E-03   4.934676421390265E-03   4.996747009625429E-03
   5.059598349746818E-03   5.123240262404178E-03   5.187682691775861E-03
   5.252935707122548E-03   5.319009504360653E-03   5.385914407655433E-03
   5.453660871034128E-03   5.522259480019490E-03   5.591720953283720E-03
   5.662056144323345E-03   5.733276043155073E-03   5.805391778032975E-03
   5.878414617187367E-03   5.952355970585410E-03   6.027227391714021E-03
   6.103040579385086E-03   6.179807379563402E-03   6.257539787217702E-03
   6.336249948194807E-03   6.415950161117518E-03   6.496652879306267E-03
   6.578370712724938E-03   6.661116429951285E-03   6.744902960171945E-03
   6.829743395202745E-03   6.915650991534278E-03   7.002639172403226E-03
   7.090721529889855E-03   7.179911827041703E-03   7.270224000024170E-03
   7.361672160298038E-03   7.454270596824380E-03   7.548033778297318E-03
   7.642976355404698E-03   7.739113163117365E-03   7.836459223007129E-03
   7.935029745593878E-03   8.034840132722331E-03   8.135905979968517E-03
   8.238243079076703E-03   8.341867420426844E-03   8.446795195533074E-03
   8.553042799573758E-03   8.660626833953163E-03   8.769564108895555E-03
   8.879871646071794E-03   8.991566681258955E-03   9.104666667033563E-03
   9.219189275498465E-03   9.335152401044253E-03   9.452574163145235E-03
   9.571472909190604E-03   9.691867217351362E-03   9.813775899483073E-03
   9.937218004065359E-03   1.006221281917823E-02   1.018877987551580E-02
   1.031693894943818E-02   1.044671006606136E-02   1.057811350238637E-02
   1.071116979046747E-02   1.084589972062037E-02   1.098232434467078E-02
   1.112046497924375E-02   1.126034320909448E-02   1.140198089048100E-02
   1.154540015457914E-02   1.169062341094076E-02   1.183767335099508E-02
   1.198657295159442E-02   1.213734547860434E-02   1.229001449053889E-02
   1.244460384224184E-02   1.260113768861387E-02   1.275964048838695E-02
   1.292013700794605E-02   1.308265232519885E-02   1.324721183349435E-02
   1.341384124559046E-02   1.358256659767188E-02   1.375341425341815E-02
   1.392641090812303E-02   1.410158359286583E-02   1.427895967873489E-02
   1.445856688110451E-02   1.464043326396552E-02   1.482458724431020E-02
   1.501105759657267E-02   1.519987345712483E-02   1.539106432882903E-02
   1.558466008564801E-02   1.578069097731259E-02   1.597918763404845E-02
   1.618018107136203E-02   1.638370269488683E-02   1.658978430529064E-02
   1.679845810324430E-02   1.700975669445336E-02   1.722371309475251E-02
   1.744036073526463E-02   1.765973346762436E-02   1.788186556926738E-02
   1.810679174878657E-02   1.833454715135502E-02   1.856516736421781E-02
   1.879868842225241E-02   1.903514681359918E-02   1.927457948536292E-02
   1.951702384938565E-02   1.976251778809254E-02   2.001109966041100E-02
   2.026280830776427E-02   2.051768306014067E-02   2.077576374223873E-02
   2.103709067969017E-02   2.130170470536057E-02   2.156964716572984E-02
   2.184095992735258E-02   2.211568538339970E-02   2.239386646028273E-02
   2.267554662436082E-02   2.296076988873272E-02   2.324958082011383E-02
   2.354202454579968E-02   2.383814676071747E-02   2.413799373456567E-02
   2.444161231904402E-02   2.474904995517412E-02   2.506035468071199E-02
   2.537557513765447E-02   2.569476057983916E-02   2.601796088064085E-02
   2.634522654076414E-02   2.667660869613416E-02   2.701215912588698E-02
   2.735193026045983E-02   2.769597518978382E-02   2.804434767157915E-02
   2.839710213975479E-02   2.875429371291418E-02   2.911597820296721E-02
   2.948221212385138E-02   2.985305270036198E-02   3.022855787709347E-02
   3.060878632749378E-02   3.099379746303177E-02   3.138365144248073E-02
   3.177840918131817E-02   3.217813236124380E-02   3.258288343981787E-02
   3.299272566021973E-02   3.340772306113023E-02   3.382794048673762E-02
   3.425344359686949E-02   3.468429887725260E-02   3.512057364990098E-02
   3.556233608363552E-02   3.600965520473531E-02   3.646260090772301E-02
   3.692124396628633E-02   3.738565604433618E-02   3.785590970720466E-02
   3.833207843298340E-02   3.881423662400445E-02   3.930245961846625E-02
   3.979682370220484E-02   4.029740612061417E-02   4.080428509071562E-02
   4.131753981337938E-02   4.183725048570025E-02   4.236349831352798E-02
   4.289636552415640E-02   4.343593537917140E-02   4.398229218746040E-02
   4.453552131838644E-02   4.509570921512662E-02   4.566294340817960E-02
   4.623731252904216E-02   4.681890632405786E-02   4.740781566844057E-02
   4.800413258047334E-02   4.860795023588697E-02   4.921936298241870E-02
   4.983846635455391E-02   5.046535708845426E-02   5.110013313707215E-02
   5.174289368545674E-02   5.239373916625151E-02   5.305277127538680E-02
   5.372009298797067E-02   5.439580857437820E-02   5.508002361654460E-02
   5.577284502446236E-02   5.647438105288584E-02   5.718474131824694E-02
   5.790403681578218E-02   5.863237993687657E-02   5.936988448662470E-02
   6.011666570161272E-02   6.087284026792503E-02   6.163852633937587E-02
   6.241384355597177E-02   6.319891306260537E-02   6.399385752798407E-02
   6.479880116379814E-02   6.561386974412814E-02   6.643919062509811E-02
   6.727489276477494E-02   6.812110674331799E-02   6.897796478338326E-02
   6.984560077078260E-02   7.072415027540432E-02   7.161375057239612E-02
   7.251454066361403E-02   7.342666129934274E-02   7.435025500028704E-02
   7.528546607984191E-02   7.623244066664135E-02   7.719132672739093E-02
   7.816227408998877E-02   7.914543446693542E-02   8.014096147904017E-02
   8.114901067942420E-02   8.216973957782571E-02   8.320330766521203E-02
   8.424987643869933E-02   8.530960942678788E-02   8.638267221491326E-02
   8.746923247131899E-02   8.856945997325605E-02   8.968352663350976E-02
   9.081160652726249E-02   9.195387591929291E-02   9.311051329151718E-02
   9.428169937087821E-02   9.546761715758340E-02   9.666845195369983E-02
   9.788439139210769E-02   9.911562546581773E-02   1.003623465576593E-01
   1.016247494703391E-01   1.029030314568808E-01   1.041973922514456E-01
   1.055080341005409E-01   1.068351617946222E-01   1.081789827000916E-01
   1.095397067916998E-01   1.109175466853546E-01   1.123127176713423E-01
   1.137254377479684E-01   1.151559276556185E-01   1.166044109112514E-01
   1.180711138433229E-01   1.195562656271498E-01   1.210600983207203E-01
   1.225828469009518E-01   1.241247493004083E-01   1.256860464444771E-01
   1.272669822890127E-01   1.288678038584580E-01   1.304887612844395E-01
   1.321301078448531E-01   1.337921000034385E-01   1.354749974498514E-01
   1.371790631402421E-01   1.389045633383411E-01   1.406517676570653E-01
   1.424209491006445E-01   1.442123841072780E-01   1.460263525923308E-01
   1.478631379920690E-01   1.497230273079483E-01   1.516063111514585E-01
   1.535132837895314E-01   1.554442431905218E-01   1.573994910707643E-01
   1.593793329417183E-01   1.613840781577045E-01   1.634140399642410E-01
   1.654695355469907E-01   1.675508860813196E-01   1.696584167824838E-01
   1.717924569564432E-01   1.739533400513162E-01   1.761414037094833E-01
   1.783569898203423E-01   1.806004445737307E-01   1.828721185140186E-01
   1.851723665948802E-01   1.875015482347587E-01   1.898600273730234E-01
   1.922481725268383E-01   1.946663568487429E-01   1.971149581849565E-01
   1.995943591344204E-01   2.021049471085765E-01   2.046471143919041E-01
   2.072212582032135E-01   2.098277807577118E-01   2.124670893298518E-01
   2.151395963169668E-01   2.178457193037112E-01   2.205858811273078E-01
   2.233605099436157E-01   2.261700392940330E-01   2.290149081732362E-01
   2.318955610977760E-01   2.348124481755328E-01   2.377660251760463E-01
   2.407567536017327E-01   2.437851007599924E-01   2.468515398362304E-01
   2.499565499677917E-01   2.531006163188256E-01   2.562842301560969E-01
   2.595078889257439E-01   2.627720963310085E-01   2.660773624109393E-01
   2.694242036200849E-01   2.728131429091945E-01   2.762447098069257E-01
   2.797194405025886E-01   2.832378779299240E-01   2.868005718519375E-01
   2.904080789468036E-01   2.940609628948445E-01   2.977597944666094E-01
   3.015051516120572E-01   3.052976195508609E-01   3.091377908638527E-01
   3.130262655856123E-01   3.169636512982264E-01   3.209505632262240E-01
   3.249876243327041E-01   3.290754654166793E-01   3.332147252116345E-01
   3.374060504853346E-01   3.416500961408815E-01   3.459475253190425E-01
   3.502990095018708E-01   3.547052286176220E-01   3.591668711469982E-01
   3.636846342307223E-01   3.682592237784666E-01   3.728913545791561E-01
   3.775817504126512E-01   3.823311441628444E-01   3.871402779321724E-01
   3.920099031575697E-01   3.969407807278864E-01   4.019336811027734E-01
   4.069893844330731E-01   4.121086806827176E-01   4.172923697521596E-01
   4.225412616033641E-01   4.278561763863603E-01   4.332379445673968E-01
   4.386874070587024E-01   4.442054153498765E-01   4.497928316409427E-01
   4.554505289770628E-01   4.611793913849567E-01   4.669803140110322E-01
   4.728542032612498E-01   4.788019769427572E-01   4.848245644072913E-01
   4.909229066963972E-01   4.970979566884657E-01   5.033506792476196E-01
   5.096820513744817E-01   5.160930623588265E-01   5.225847139341642E-01
   5.291580204342619E-01   5.358140089516319E-01   5.425537194980236E-01
   5.493782051669200E-01   5.562885322980924E-01   5.632857806442152E-01
   5.703710435395765E-01   5.775454280709207E-01   5.848100552504253E-01
   5.921660601908680E-01   5.996145922829879E-01   6.071568153750763E-01
   6.147939079548382E-01   6.225270633335249E-01   6.303574898323987E-01
   6.382864109715322E-01   6.463150656609825E-01   6.544447083943817E-01
   6.626766094449447E-01   6.710120550639593E-01   6.794523476817635E-01
   6.879988061112483E-01   6.966527657539338E-01   7.054155788086180E-01
   7.142886144826703E-01   7.232732592059681E-01   7.323709168475266E-01
   7.415830089348640E-01   7.509109748761085E-01   7.603562721849175E-01
   7.699203767082138E-01   7.796047828567845E-01   7.894110038387961E-01
   7.993405718962254E-01   8.093950385442844E-01   8.195759748138445E-01
   8.298849714969081E-01   8.403236393951835E-01   8.508936095717647E-01
   8.615965336059981E-01   8.724340838515406E-01   8.834079536976644E-01
   8.945198578338623E-01   9.057715325177601E-01   9.171647358464201E-01
   9.287012480310441E-01   9.403828716751286E-01   9.522114320561377E-01
   9.641887774106932E-01   9.763167792233765E-01   9.885973325191471E-01
   1.001032356159439E+00   1.013623793141998E+00   1.026373610904469E+00
   1.039283801631815E+00   1.052356382567609E+00   1.065593396329212E+00
   1.078996911226960E+00   1.092569021587322E+00   1.106311848080155E+00
   1.120227538050062E+00   1.134318265851908E+00   1.148586233190584E+00
   1.163033669465011E+00   1.177662832116502E+00   1.192476006981487E+00
   1.207475508648672E+00   1.222663680820713E+00   1.238042896680410E+00
    </PP_RAB>
  </PP_MESH>
  <PP_NLCC size="1095">
   8.661537123678090E-01   8.661537103200787E-01   8.661537082205096E-01
   8.661537060677901E-01   8.661537038605741E-01   8.661537015974818E-01
   8.661536992770994E-01   8.661536968979762E-01   8.661536944586254E-01
   8.661536919575218E-01   8.661536893931028E-01   8.661536867637649E-01
   8.661536840678652E-01   8.661536813037184E-01   8.661536784695970E-01
   8.661536755637294E-01   8.661536725842994E-01   8.661536695294447E-01
   8.661536663972561E-01   8.661536631857759E-01   8.661536598929964E-01
   8.661536565168604E-01   8.661536530552565E-01   8.661536495060219E-01
   8.661536458669380E-01   8.661536421357303E-01   8.661536383100665E-01
   8.661536343875557E-01   8.661536303657462E-01   8.661536262421238E-01
   8.661536220141118E-01   8.661536176790670E-01   8.661536132342801E-01
   8.661536086769729E-01   8.661536040042971E-01   8.661535992133313E-01
   8.661535943010822E-01   8.661535892644792E-01   8.661535841003735E-01
   8.661535788055380E-01   8.661535733766631E-01   8.661535678103557E-01
   8.661535621031367E-01   8.661535562514386E-01   8.661535502516045E-01
   8.661535440998833E-01   8.661535377924307E-01   8.661535313253044E-01
   8.661535246944622E-01   8.661535178957591E-01   8.661535109249463E-01
   8.661535037776664E-01   8.661534964494526E-01   8.661534889357240E-01
   8.661534812317847E-01   8.661534733328191E-01   8.661534652338905E-01
   8.661534569299367E-01   8.661534484157670E-01   8.661534396860604E-01
   8.661534307353601E-01   8.661534215580723E-01   8.661534121484599E-01
   8.661534025006422E-01   8.661533926085893E-01   8.661533824661177E-01
   8.661533720668884E-01   8.661533614044014E-01   8.661533504719923E-01
   8.661533392628284E-01   8.661533277699029E-01   8.661533159860332E-01
   8.661533039038531E-01   8.661532915158116E-01   8.661532788141653E-01
   8.661532657909756E-01   8.661532524381024E-01   8.661532387471996E-01
   8.661532247097106E-01   8.661532103168610E-01   8.661531955596544E-01
   8.661531804288677E-01   8.661531649150440E-01   8.661531490084859E-01
   8.661531326992516E-01   8.661531159771474E-01   8.661530988317213E-01
   8.661530812522572E-01   8.661530632277671E-01   8.661530447469851E-01
   8.661530257983604E-01   8.661530063700492E-01   8.661529864499083E-01
   8.661529660254870E-01   8.661529450840199E-01   8.661529236124169E-01
   8.661529015972584E-01   8.661528790247842E-01   8.661528558808855E-01
   8.661528321510965E-01   8.661528078205861E-01   8.661527828741462E-01
   8.661527572961848E-01   8.661527310707148E-01   8.661527041813449E-01
   8.661526766112680E-01   8.661526483432522E-01   8.661526193596288E-01
   8.661525896422823E-01   8.661525591726384E-01   8.661525279316531E-01
   8.661524958997991E-01   8.661524630570563E-01   8.661524293828964E-01
   8.661523948562723E-01   8.661523594556039E-01   8.661523231587646E-01
   8.661522859430675E-01   8.661522477852521E-01   8.661522086614687E-01
   8.661521685472635E-01   8.661521274175641E-01   8.661520852466630E-01
   8.661520420082026E-01   8.661519976751568E-01   8.661519522198169E-01
   8.661519056137718E-01   8.661518578278913E-01   8.661518088323077E-01
   8.661517585963975E-01   8.661517070887619E-01   8.661516542772068E-01
   8.661516001287241E-01   8.661515446094684E-01   8.661514876847398E-01
   8.661514293189583E-01   8.661513694756433E-01   8.661513081173913E-01
   8.661512452058514E-01   8.661511807017025E-01   8.661511145646280E-01
   8.661510467532895E-01   8.661509772253039E-01   8.661509059372138E-01
   8.661508328444624E-01   8.661507579013646E-01   8.661506810610793E-01
   8.661506022755787E-01   8.661505214956201E-01   8.661504386707141E-01
   8.661503537490928E-01   8.661502666776776E-01   8.661501774020469E-01
   8.661500858664014E-01   8.661499920135283E-01   8.661498957847675E-01
   8.661497971199741E-01   8.661496959574791E-01   8.661495922340542E-01
   8.661494858848692E-01   8.661493768434537E-01   8.661492650416538E-01
   8.661491504095910E-01   8.661490328756173E-01   8.661489123662707E-01
   8.661487888062307E-01   8.661486621182694E-01   8.661485322232035E-01
   8.661483990398459E-01   8.661482624849540E-01   8.661481224731775E-01
   8.661479789170066E-01   8.661478317267151E-01   8.661476808103059E-01
   8.661475260734534E-01   8.661473674194435E-01   8.661472047491143E-01
   8.661470379607936E-01   8.661468669502352E-01   8.661466916105540E-01
   8.661465118321597E-01   8.661463275026868E-01   8.661461385069262E-01
   8.661459447267522E-01   8.661457460410484E-01   8.661455423256333E-01
   8.661453334531808E-01   8.661451192931416E-01   8.661448997116629E-01
   8.661446745715028E-01   8.661444437319443E-01   8.661442070487101E-01
   8.661439643738691E-01   8.661437155557461E-01   8.661434604388266E-01
   8.661431988636584E-01   8.661429306667544E-01   8.661426556804880E-01
   8.661423737329889E-01   8.661420846480372E-01   8.661417882449519E-01
   8.661414843384772E-01   8.661411727386693E-01   8.661408532507749E-01
   8.661405256751117E-01   8.661401898069420E-01   8.661398454363459E-01
   8.661394923480892E-01   8.661391303214896E-01   8.661387591302787E-01
   8.661383785424601E-01   8.661379883201646E-01   8.661375882195024E-01
   8.661371779904091E-01   8.661367573764911E-01   8.661363261148639E-01
   8.661358839359892E-01   8.661354305635049E-01   8.661349657140544E-01
   8.661344890971076E-01   8.661340004147799E-01   8.661334993616473E-01
   8.661329856245544E-01   8.661324588824179E-01   8.661319188060271E-01
   8.661313650578397E-01   8.661307972917673E-01   8.661302151529616E-01
   8.661296182775921E-01   8.661290062926196E-01   8.661283788155612E-01
   8.661277354542524E-01   8.661270758066023E-01   8.661263994603434E-01
   8.661257059927698E-01   8.661249949704790E-01   8.661242659490959E-01
   8.661235184729985E-01   8.661227520750312E-01   8.661219662762146E-01
   8.661211605854447E-01   8.661203344991878E-01   8.661194875011632E-01
   8.661186190620237E-01   8.661177286390228E-01   8.661168156756763E-01
   8.661158796014151E-01   8.661149198312273E-01   8.661139357652941E-01
   8.661129267886148E-01   8.661118922706224E-01   8.661108315647894E-01
   8.661097440082240E-01   8.661086289212567E-01   8.661074856070142E-01
   8.661063133509862E-01   8.661051114205770E-01   8.661038790646485E-01
   8.661026155130522E-01   8.661013199761466E-01   8.660999916443040E-01
   8.660986296874057E-01   8.660972332543231E-01   8.660958014723860E-01
   8.660943334468365E-01   8.660928282602728E-01   8.660912849720733E-01
   8.660897026178106E-01   8.660880802086487E-01   8.660864167307262E-01
   8.660847111445217E-01   8.660829623842060E-01   8.660811693569755E-01
   8.660793309423699E-01   8.660774459915729E-01   8.660755133266947E-01
   8.660735317400357E-01   8.660714999933333E-01   8.660694168169882E-01
   8.660672809092717E-01   8.660650909355129E-01   8.660628455272656E-01
   8.660605432814530E-01   8.660581827594929E-01   8.660557624863987E-01
   8.660532809498587E-01   8.660507365992919E-01   8.660481278448805E-01
   8.660454530565764E-01   8.660427105630849E-01   8.660398986508202E-01
   8.660370155628370E-01   8.660340594977317E-01   8.660310286085218E-01
   8.660279210014887E-01   8.660247347349989E-01   8.660214678182908E-01
   8.660181182102327E-01   8.660146838180496E-01   8.660111624960155E-01
   8.660075520441173E-01   8.660038502066781E-01   8.660000546709544E-01
   8.659961630657287E-01   8.659921729596269E-01   8.659880818600563E-01
   8.659838872110689E-01   8.659795863923000E-01   8.659751767168260E-01
   8.659706554300732E-01   8.659660197075795E-01   8.659612666533464E-01
   8.659563932983662E-01   8.659513965984779E-01   8.659462734322478E-01
   8.659410205996302E-01   8.659356348195495E-01   8.659301127277036E-01
   8.659244508750487E-01   8.659186457250321E-01   8.659126936518078E-01
   8.659065909377902E-01   8.659003337714545E-01   8.658939182445882E-01
   8.658873403504683E-01   8.658805959809968E-01   8.658736809240491E-01
   8.658665908610663E-01   8.658593213642378E-01   8.658518678939932E-01
   8.658442257956226E-01   8.658363902971149E-01   8.658283565055325E-01
   8.658201194043326E-01   8.658116738501053E-01   8.658030145694640E-01
   8.657941361556638E-01   8.657850330653204E-01   8.657756996148797E-01
   8.657661299771655E-01   8.657563181776964E-01   8.657462580909084E-01
   8.657359434366120E-01   8.657253677756599E-01   8.657145245062580E-01
   8.657034068599077E-01   8.656920078969118E-01   8.656803205021852E-01
   8.656683373810847E-01   8.656560510543960E-01   8.656434538540324E-01
   8.656305379183959E-01   8.656172951867950E-01   8.656037173953997E-01
   8.655897960714015E-01   8.655755225279560E-01   8.655608878588952E-01
   8.655458829330568E-01   8.655304983887696E-01   8.655147246279008E-01
   8.654985518098783E-01   8.654819698456909E-01   8.654649683917688E-01
   8.654475368431476E-01   8.654296643273049E-01   8.654113396972070E-01
   8.653925515245010E-01   8.653732880923212E-01   8.653535373882513E-01
   8.653332870964457E-01   8.653125245906561E-01   8.652912369258369E-01
   8.652694108303211E-01   8.652470326978334E-01   8.652240885786669E-01
   8.652005641714426E-01   8.651764448139841E-01   8.651517154744128E-01
   8.651263607418870E-01   8.651003648169102E-01   8.650737115017787E-01
   8.650463841903687E-01   8.650183658582119E-01   8.649896390515059E-01
   8.649601858769298E-01   8.649299879900826E-01   8.648990265845858E-01
   8.648672823802701E-01   8.648347356113872E-01   8.648013660143367E-01
   8.647671528153715E-01   8.647320747177329E-01   8.646961098885564E-01
   8.646592359453951E-01   8.646214299426016E-01   8.645826683571313E-01
   8.645429270742213E-01   8.645021813724140E-01   8.644604059085952E-01
   8.644175747023569E-01   8.643736611200830E-01   8.643286378587330E-01
   8.642824769290133E-01   8.642351496383245E-01   8.641866265732816E-01
   8.641368775816070E-01   8.640858717538609E-01   8.640335774045127E-01
   8.639799620526357E-01   8.639249924021445E-01   8.638686343214368E-01
   8.638108528227476E-01   8.637516120407701E-01   8.636908752108958E-01
   8.636286046469075E-01   8.635647617180725E-01   8.634993068258092E-01
   8.634321993795854E-01   8.633633977723921E-01   8.632928593556206E-01
   8.632205404132042E-01   8.631463961353202E-01   8.630703805912686E-01
   8.629924467018463E-01   8.629125462109983E-01   8.628306296567370E-01
   8.627466463414820E-01   8.626605443015701E-01   8.625722702761481E-01
   8.624817696752166E-01   8.623889865469843E-01   8.622938635444269E-01
   8.621963418910191E-01   8.620963613457574E-01   8.619938601671836E-01
   8.618887750767283E-01   8.617810412211090E-01   8.616705921338026E-01
   8.615573596957544E-01   8.614412740949916E-01   8.613222637854212E-01
   8.612002554446236E-01   8.610751739306596E-01   8.609469422378493E-01
   8.608154814516041E-01   8.606807107021329E-01   8.605425471171394E-01
   8.604009057733821E-01   8.602556996471711E-01   8.601068395637079E-01
   8.599542341452843E-01   8.597977897582680E-01   8.596374104589437E-01
   8.594729979380969E-01   8.593044514643501E-01   8.591316678262427E-01
   8.589545412730049E-01   8.587729634540070E-01   8.585868233569109E-01
   8.583960072443874E-01   8.582003985894872E-01   8.579998780095799E-01
   8.577943231988522E-01   8.575836088593615E-01   8.573676066305587E-01
   8.571461850173309E-01   8.569192093164836E-01   8.566865415416585E-01
   8.564480403466865E-01   8.562035609472796E-01   8.559529550411321E-01
   8.556960707263205E-01   8.554327524180387E-01   8.551628407636065E-01
   8.548861725557627E-01   8.546025806441712E-01   8.543118938451754E-01
   8.540139368497341E-01   8.537085301295226E-01   8.533954898412280E-01
   8.530746277289221E-01   8.527457510246104E-01   8.524086623468159E-01
   8.520631595972917E-01   8.517090358557698E-01   8.513460792727665E-01
   8.509740729604149E-01   8.505927948813156E-01   8.502020177354205E-01
   8.498015088448591E-01   8.493910300368268E-01   8.489703375244015E-01
   8.485391817853791E-01   8.480973074390585E-01   8.476444531210184E-01
   8.471803513558949E-01   8.467047284281058E-01   8.462173042506124E-01
   8.457177922316582E-01   8.452058991395556E-01   8.446813249654870E-01
   8.441437627843974E-01   8.435928986139468E-01   8.430284112716026E-01
   8.424499722298829E-01   8.418572454697710E-01   8.412498873324065E-01
   8.406275463690209E-01   8.399898631892486E-01   8.393364703078198E-01
   8.386669919897467E-01   8.379810440940256E-01   8.372782339160051E-01
   8.365581600284351E-01   8.358204121213597E-01   8.350645708409130E-01
   8.342902076271552E-01   8.334968845510727E-01   8.326841541508585E-01
   8.318515592676516E-01   8.309986328808413E-01   8.301248979431528E-01
   8.292298672156613E-01   8.283130431029411E-01   8.273739174885403E-01
   8.264119715710238E-01   8.254266757007919E-01   8.244174892179483E-01
   8.233838602914604E-01   8.223252257599188E-01   8.212410109741777E-01
   8.201306296422024E-01   8.189934836764723E-01   8.178289630442839E-01
   8.166364456213421E-01   8.154152970490585E-01   8.141648705959511E-01
   8.128845070236301E-01   8.115735344578373E-01   8.102312682650264E-01
   8.088570109350538E-01   8.074500519704992E-01   8.060096677832412E-01
   8.045351215988926E-01   8.030256633697658E-01   8.014805296970371E-01
   7.998989437628670E-01   7.982801152732066E-01   7.966232404121175E-01
   7.949275018084265E-01   7.931920685156119E-01   7.914160960058301E-01
   7.895987261790671E-01   7.877390873884125E-01   7.858362944825280E-01
   7.838894488664109E-01   7.818976385816179E-01   7.798599384071502E-01
   7.777754099822728E-01   7.756431019525791E-01   7.734620501406689E-01
   7.712312777428777E-01   7.689497955535443E-01   7.666166022183550E-01
   7.642306845183858E-01   7.617910176865023E-01   7.592965657578568E-01
   7.567462819562817E-01   7.541391091184358E-01   7.514739801576369E-01
   7.487498185693728E-01   7.459655389805525E-01   7.431200477446287E-01
   7.402122435847790E-01   7.372410182874102E-01   7.342052574483203E-01
   7.311038412738939E-01   7.279356454398062E-01   7.246995420097381E-01
   7.213944004166926E-01   7.180190885095433E-01   7.145724736675132E-01
   7.110534239853286E-01   7.074608095318348E-01   7.037935036849244E-01
   7.000503845456447E-01   6.962303364343974E-01   6.923322514721703E-01
   6.883550312497547E-01   6.842975885879142E-01   6.801588493914811E-01
   6.759377546003329E-01   6.716332622402006E-01   6.672443495762135E-01
   6.627700153720449E-01   6.582092822574731E-01   6.535611992070763E-01
   6.488248441327061E-01   6.439993265922553E-01   6.390837906171143E-01
   6.340774176605423E-01   6.289794296690092E-01   6.237890922783489E-01
   6.185057181363333E-01   6.131286703530066E-01   6.076573660798267E-01
   6.020912802183186E-01   5.964299492585852E-01   5.906729752475962E-01
   5.848200298867385E-01   5.788708587576016E-01   5.728252856744334E-01
   5.666832171611100E-01   5.604446470498049E-01   5.541096611978498E-01
   5.476784423185145E-01   5.411512749206111E-01   5.345285503509405E-01
   5.278107719326461E-01   5.209985601915224E-01   5.140926581612240E-01
   5.070939367571631E-01   5.000034002076352E-01   4.928221915293892E-01
   4.855515980334638E-01   4.781930568456253E-01   4.707481604241804E-01
   4.632186620562989E-01   4.556064813122372E-01   4.479137094350663E-01
   4.401426146416027E-01   4.322956473082840E-01   4.243754450136907E-01
   4.163848374072970E-01   4.083268508718651E-01   4.002047129446619E-01
   3.920218564603864E-01   3.837819233763765E-01   3.754887682382921E-01
   3.671464612421115E-01   3.587592908458863E-01   3.503317658823282E-01
   3.418686171209954E-01   3.333747982265093E-01   3.248554860570945E-01
   3.163160802455866E-01   3.077622020030917E-01   2.991996920837205E-01
   2.906346078471581E-01   2.820732193545408E-01   2.735220044319978E-01
   2.649876426354743E-01   2.564770080501403E-01   2.479971608576908E-01
   2.395553376054829E-01   2.311589401125302E-01   2.228155229491149E-01
   2.145327794292402E-01   2.063185260582626E-01   1.981806853821199E-01
   1.901272671894449E-01   1.821663480237604E-01   1.743060489699597E-01
   1.665545116873251E-01   1.589198726707434E-01   1.514102357323708E-01
   1.440336427080329E-01   1.367980424061424E-01   1.297112578318551E-01
   1.227809517357995E-01   1.160145905548646E-01   1.094194068323774E-01
   1.030023602265554E-01   9.677009723928412E-02   9.072890982219792E-02
   8.488469304352395E-02   7.924290202722478E-02   7.380850840555028E-02
   6.858595655693488E-02   6.357911993326526E-02   5.879125781349728E-02
   5.422497285427361E-02   4.988216984225910E-02   4.576401608690822E-02
   4.187090392602351E-02   3.820241584911575E-02   3.475729277475986E-02
   3.153340604722000E-02   2.852773374380767E-02   2.573634190707961E-02
   2.315437133410696E-02   2.077603056780411E-02   1.859459574168537E-02
   1.660241792832492E-02   1.479093863218626E-02   1.315071404813408E-02
   1.167144867670163E-02   1.034203884484644E-02   9.150626625257612E-03
   8.084818320707593E-03   7.132740665547227E-03   6.283504426081684E-03
   5.527124385631620E-03   4.854458448055353E-03   4.257149524070905E-03
   3.727570187327298E-03   3.258770076414400E-03   2.844426009029263E-03
   2.478794765349544E-03   2.156668489313173E-03   1.873332648969267E-03
   1.624526490347813E-03   1.406405913386778E-03   1.215508693340989E-03
   1.048721966760817E-03   9.032518975459320E-04   7.765954357242539E-04
   6.665140794474616E-04   5.710095491974197E-04   4.883012823262355E-04
   4.168056557660494E-04   3.551168450020677E-04   3.019892281606967E-04
   2.563212452798002E-04   2.171406244559644E-04   1.835908885593691E-04
   1.549190585264256E-04   1.304644718402627E-04   1.096486376469423E-04
   9.196605299017860E-05   7.697590783989377E-05   6.429460990296601E-05
   5.358906360286491E-05   4.457064106560703E-05   3.698978642063602E-05
   3.063119821814960E-05   2.530953800905390E-05   2.086561737171120E-05
   1.716301652832186E-05   1.408509508724306E-05   1.153235499853536E-05
   9.420119421842728E-06   7.676495147982168E-06   6.240588454478811E-06
   5.060946789932322E-06   4.094201174957702E-06   3.303886511535741E-06
   2.659419150091550E-06   2.135213075307704E-06   1.709917939860052E-06
   1.365763903285555E-06   1.087999825321827E-06   8.644128243265213E-07
   6.849185474354305E-07   5.412127160738197E-07   4.264756147656472E-07
   3.351221895930909E-07   2.625913219726174E-07   2.051686504941673E-07
   1.598380352270711E-07   1.241574018174434E-07   9.615527339251490E-08
   7.424480302038593E-08   5.715256424935648E-08   4.385974776649016E-08
   3.355375384158980E-08   2.558846799108597E-08   1.945176588847322E-08
   1.473901729509552E-08   1.113155167076545E-08   8.379213790861875E-09
   6.286279458652880E-09   4.700122256265380E-09   3.502124922822823E-09
   2.600415799407086E-09   1.924083989717441E-09   1.418588360353747E-09
   1.042126928456080E-09   7.627760343903425E-10   5.562442640370515E-10
   4.041154913465322E-10   2.924796284275568E-10   2.108695340996326E-10
   1.514387597265113E-10   1.083280151865707E-10   7.717893771432009E-11
   5.476238135882851E-11   3.869538454480489E-11   2.722652719114633E-11
   1.907381500099106E-11   1.330274087950943E-11   9.234948642205943E-12
   6.380107432072041E-12   4.385315304257355E-12   2.997683903411902E-12
   2.036791331643203E-12   1.374490291908646E-12   9.201739794044599E-13
   6.100736371290465E-13   3.995196052746727E-13   2.573781292287651E-13
   1.620439505524262E-13   9.888170601023832E-14   5.663852471601399E-14
   0.000000000000000E+00   0.000000000000000E+00   0.000000000000000E+00
   0.000000000000000E+00   0.000000000000000E+00   0.000000000000000E+00
   0.000000000000000E+00   0.000000000000000E+00   0.000000000000000E+00
   0.000000000000000E+00   0.000000000000000E+00   0.000000000000000E+00
   0.000000000000000E+00   0.000000000000000E+00   0.000000000000000E+00
   0.000000000000000E+00   0.000000000000000E+00   0.000000000000000E+00
   0.000000000000000E+00   0.000000000000000E+00   0.000000000000000E+00
   0.000000000000000E+00   0.000000000000000E+00   0.000000000000000E+00
   0.000000000000000E+00   0.000000000000000E+00   0.000000000000000E+00
   0.000000000000000E+00   0.000000000000000E+00   0.000000000000000E+00
   0.000000000000000E+00   0.000000000000000E+00   0.000000000000000E+00
   0.000000000000000E+00   0.000000000000000E+00   0.000000000000000E+00
   0.000000000000000E+00   0.000000000000000E+00   0.000000000000000E+00
   0.000000000000000E+00   0.000000000000000E+00   0.000000000000000E+00
   0.000000000000000E+00   0.000000000000000E+00   0.000000000000000E+00
   0.000000000000000E+00   0.000000000000000E+00   0.000000000000000E+00
   0.000000000000000E+00   0.000000000000000E+00   0.000000000000000E+00
   0.000000000000000E+00   0.000000000000000E+00   0.000000000000000E+00
   0.000000000000000E+00   0.000000000000000E+00   0.000000000000000E+00
   0.000000000000000E+00   0.000000000000000E+00   0.000000000000000E+00
   0.000000000000000E+00   0.000000000000000E+00   0.000000000000000E+00
   0.000000000000000E+00   0.000000000000000E+00   0.000000000000000E+00
   0.000000000000000E+00   0.000000000000000E+00   0.000000000000000E+00
   0.000000000000000E+00   0.000000000000000E+00   0.000000000000000E+00
   0.000000000000000E+00   0.000000000000000E+00   0.000000000000000E+00
   0.000000000000000E+00   0.000000000000000E+00   0.000000000000000E+00
   0.000000000000000E+00   0.000000000000000E+00   0.000000000000000E+00
   0.000000000000000E+00   0.000000000000000E+00   0.000000000000000E+00
   0.000000000000000E+00   0.000000000000000E+00   0.000000000000000E+00
   0.000000000000000E+00   0.000000000000000E+00   0.000000000000000E+00
   0.000000000000000E+00   0.000000000000000E+00   0.000000000000000E+00
   0.000000000000000E+00   0.000000000000000E+00   0.000000000000000E+00
   0.000000000000000E+00   0.000000000000000E+00   0.000000000000000E+00
   0.000000000000000E+00   0.000000000000000E+00   0.000000000000000E+00
   0.000000000000000E+00   0.000000000000000E+00   0.000000000000000E+00
   0.000000000000000E+00   0.000000000000000E+00   0.000000000000000E+00
   0.000000000000000E+00   0.000000000000000E+00   0.000000000000000E+00
   0.000000000000000E+00   0.000000000000000E+00   0.000000000000000E+00
   0.000000000000000E+00   0.000000000000000E+00   0.000000000000000E+00
   0.000000000000000E+00   0.000000000000000E+00   0.000000000000000E+00
   0.000000000000000E+00   0.000000000000000E+00   0.000000000000000E+00
   0.000000000000000E+00   0.000000000000000E+00   0.000000000000000E+00
   0.000000000000000E+00   0.000000000000000E+00   0.000000000000000E+00
   0.000000000000000E+00   0.000000000000000E+00   0.000000000000000E+00
   0.000000000000000E+00   0.000000000000000E+00   0.000000000000000E+00
   0.000000000000000E+00   0.000000000000000E+00   0.000000000000000E+00
   0.000000000000000E+00   0.000000000000000E+00   0.000000000000000E+00
   0.000000000000000E+00   0.000000000000000E+00   0.000000000000000E+00
   0.000000000000000E+00   0.000000000000000E+00   0.000000000000000E+00
   0.000000000000000E+00   0.000000000000000E+00   0.000000000000000E+00
   0.000000000000000E+00   0.000000000000000E+00   0.000000000000000E+00
   0.000000000000000E+00   0.000000000000000E+00   0.000000000000000E+00
   0.000000000000000E+00   0.000000000000000E+00   0.000000000000000E+00
   0.000000000000000E+00   0.000000000000000E+00   0.000000000000000E+00
   0.000000000000000E+00   0.000000000000000E+00   0.000000000000000E+00
   0.000000000000000E+00   0.000000000000000E+00   0.000000000000000E+00
   0.000000000000000E+00   0.000000000000000E+00   0.000000000000000E+00
   0.000000000000000E+00   0.000000000000000E+00   0.000000000000000E+00
   0.000000000000000E+00   0.000000000000000E+00   0.000000000000000E+00
   0.000000000000000E+00   0.000000000000000E+00   0.000000000000000E+00
   0.000000000000000E+00   0.000000000000000E+00   0.000000000000000E+00
   0.000000000000000E+00   0.000000000000000E+00   0.000000000000000E+00
   0.000000000000000E+00   0.000000000000000E+00   0.000000000000000E+00
   0.000000000000000E+00   0.000000000000000E+00   0.000000000000000E+00
   0.000000000000000E+00   0.000000000000000E+00   0.000000000000000E+00
   0.000000000000000E+00   0.000000000000000E+00   0.000000000000000E+00
   0.000000000000000E+00   0.000000000000000E+00   0.000000000000000E+00
   0.000000000000000E+00   0.000000000000000E+00   0.000000000000000E+00
   0.000000000000000E+00   0.000000000000000E+00   0.000000000000000E+00
   0.000000000000000E+00   0.000000000000000E+00   0.000000000000000E+00
   0.000000000000000E+00   0.000000000000000E+00   0.000000000000000E+00
   0.000000000000000E+00   0.000000000000000E+00   0.000000000000000E+00
   0.000000000000000E+00   0.000000000000000E+00   0.000000000000000E+00
   0.000000000000000E+00   0.000000000000000E+00   0.000000000000000E+00
   0.000000000000000E+00   0.000000000000000E+00   0.000000000000000E+00
   0.000000000000000E+00   0.000000000000000E+00   0.000000000000000E+00
   0.000000000000000E+00   0.000000000000000E+00   0.000000000000000E+00
   0.000000000000000E+00   0.000000000000000E+00   0.000000000000000E+00
   0.000000000000000E+00   0.000000000000000E+00   0.000000000000000E+00
   0.000000000000000E+00   0.000000000000000E+00   0.000000000000000E+00
   0.000000000000000E+00   0.000000000000000E+00   0.000000000000000E+00
   0.000000000000000E+00   0.000000000000000E+00   0.000000000000000E+00
   0.000000000000000E+00   0.000000000000000E+00   0.000000000000000E+00
   0.000000000000000E+00   0.000000000000000E+00   0.000000000000000E+00
   0.000000000000000E+00   0.000000000000000E+00   0.000000000000000E+00
   0.000000000000000E+00   0.000000000000000E+00   0.000000000000000E+00
   0.000000000000000E+00   0.000000000000000E+00   0.000000000000000E+00
   0.000000000000000E+00   0.000000000000000E+00   0.000000000000000E+00
   0.000000000000000E+00   0.000000000000000E+00   0.000000000000000E+00
   0.000000000000000E+00   0.000000000000000E+00   0.000000000000000E+00
   0.000000000000000E+00   0.000000000000000E+00   0.000000000000000E+00
   0.000000000000000E+00   0.000000000000000E+00   0.000000000000000E+00
   0.000000000000000E+00   0.000000000000000E+00   0.000000000000000E+00
   0.000000000000000E+00   0.000000000000000E+00   0.000000000000000E+00
   0.000000000000000E+00   0.000000000000000E+00   0.000000000000000E+00
   0.000000000000000E+00   0.000000000000000E+00   0.000000000000000E+00
   0.000000000000000E+00   0.000000000000000E+00   0.000000000000000E+00
  </PP_NLCC>
  <PP_LOCAL size="1095">
  -2.545061966740149E+01  -2.545061965935434E+01  -2.545061965110347E+01
  -2.545061964264375E+01  -2.545061963396986E+01  -2.545061962507640E+01
  -2.545061961595781E+01  -2.545061960660836E+01  -2.545061959702225E+01
  -2.545061958719347E+01  -2.545061957711586E+01  -2.545061956678315E+01
  -2.545061955618885E+01  -2.545061954532638E+01  -2.545061953418890E+01
  -2.545061952276949E+01  -2.545061951106098E+01  -2.545061949905607E+01
  -2.545061948674726E+01  -2.545061947412685E+01  -2.545061946118695E+01
  -2.545061944791947E+01  -2.545061943431612E+01  -2.545061942036841E+01
  -2.545061940606761E+01  -2.545061939140477E+01  -2.545061937637075E+01
  -2.545061936095613E+01  -2.545061934515130E+01  -2.545061932894636E+01
  -2.545061931233119E+01  -2.545061929529540E+01  -2.545061927782835E+01
  -2.545061925991913E+01  -2.545061924155652E+01  -2.545061922272906E+01
  -2.545061920342498E+01  -2.545061918363221E+01  -2.545061916333839E+01
  -2.545061914253083E+01  -2.545061912119652E+01  -2.545061909932213E+01
  -2.545061907689398E+01  -2.545061905389807E+01  -2.545061903032001E+01
  -2.545061900614506E+01  -2.545061898135812E+01  -2.545061895594370E+01
  -2.545061892988591E+01  -2.545061890316846E+01  -2.545061887577465E+01
  -2.545061884768737E+01  -2.545061881888905E+01  -2.545061878936171E+01
  -2.545061875908686E+01  -2.545061872804561E+01  -2.545061869621855E+01
  -2.545061866358577E+01  -2.545061863012690E+01  -2.545061859582101E+01
  -2.545061856064665E+01  -2.545061852458186E+01  -2.545061848760407E+01
  -2.545061844969020E+01  -2.545061841081653E+01  -2.545061837095876E+01
  -2.545061833009200E+01  -2.545061828819068E+01  -2.545061824522863E+01
  -2.545061820117898E+01  -2.545061815601421E+01  -2.545061810970609E+01
  -2.545061806222567E+01  -2.545061801354328E+01  -2.545061796362849E+01
  -2.545061791245010E+01  -2.545061785997611E+01  -2.545061780617375E+01
  -2.545061775100937E+01  -2.545061769444850E+01  -2.545061763645578E+01
  -2.545061757699497E+01  -2.545061751602890E+01  -2.545061745351946E+01
  -2.545061738942760E+01  -2.545061732371323E+01  -2.545061725633530E+01
  -2.545061718725169E+01  -2.545061711641922E+01  -2.545061704379361E+01
  -2.545061696932948E+01  -2.545061689298027E+01  -2.545061681469828E+01
  -2.545061673443458E+01  -2.545061665213898E+01  -2.545061656776006E+01
  -2.545061648124507E+01  -2.545061639253995E+01  -2.545061630158925E+01
  -2.545061620833613E+01  -2.545061611272228E+01  -2.545061601468796E+01
  -2.545061591417188E+01  -2.545061581111124E+01  -2.545061570544160E+01
  -2.545061559709692E+01  -2.545061548600948E+01  -2.545061537210984E+01
  -2.545061525532683E+01  -2.545061513558743E+01  -2.545061501281683E+01
  -2.545061488693826E+01  -2.545061475787307E+01  -2.545061462554058E+01
  -2.545061448985807E+01  -2.545061435074074E+01  -2.545061420810164E+01
  -2.545061406185161E+01  -2.545061391189925E+01  -2.545061375815083E+01
  -2.545061360051024E+01  -2.545061343887897E+01  -2.545061327315598E+01
  -2.545061310323770E+01  -2.545061292901791E+01  -2.545061275038773E+01
  -2.545061256723551E+01  -2.545061237944676E+01  -2.545061218690413E+01
  -2.545061198948725E+01  -2.545061178707274E+01  -2.545061157953408E+01
  -2.545061136674156E+01  -2.545061114856218E+01  -2.545061092485956E+01
  -2.545061069549388E+01  -2.545061046032178E+01  -2.545061021919627E+01
  -2.545060997196665E+01  -2.545060971847837E+01  -2.545060945857302E+01
  -2.545060919208813E+01  -2.545060891885714E+01  -2.545060863870929E+01
  -2.545060835146946E+01  -2.545060805695812E+01  -2.545060775499120E+01
  -2.545060744537994E+01  -2.545060712793086E+01  -2.545060680244550E+01
  -2.545060646872045E+01  -2.545060612654712E+01  -2.545060577571163E+01
  -2.545060541599471E+01  -2.545060504717151E+01  -2.545060466901151E+01
  -2.545060428127836E+01  -2.545060388372969E+01  -2.545060347611705E+01
  -2.545060305818564E+01  -2.545060262967426E+01  -2.545060219031507E+01
  -2.545060173983345E+01  -2.545060127794786E+01  -2.545060080436957E+01
  -2.545060031880261E+01  -2.545059982094347E+01  -2.545059931048097E+01
  -2.545059878709608E+01  -2.545059825046163E+01  -2.545059770024224E+01
  -2.545059713609399E+01  -2.545059655766427E+01  -2.545059596459155E+01
  -2.545059535650513E+01  -2.545059473302496E+01  -2.545059409376132E+01
  -2.545059343831467E+01  -2.545059276627533E+01  -2.545059207722324E+01
  -2.545059137072774E+01  -2.545059064634724E+01  -2.545058990362899E+01
  -2.545058914210878E+01  -2.545058836131059E+01  -2.545058756074644E+01
  -2.545058673991594E+01  -2.545058589830605E+01  -2.545058503539074E+01
  -2.545058415063065E+01  -2.545058324347278E+01  -2.545058231335015E+01
  -2.545058135968139E+01  -2.545058038187044E+01  -2.545057937930611E+01
  -2.545057835136181E+01  -2.545057729739501E+01  -2.545057621674697E+01
  -2.545057510874225E+01  -2.545057397268830E+01  -2.545057280787509E+01
  -2.545057161357454E+01  -2.545057038904019E+01  -2.545056913350669E+01
  -2.545056784618927E+01  -2.545056652628333E+01  -2.545056517296389E+01
  -2.545056378538510E+01  -2.545056236267967E+01  -2.545056090395836E+01
  -2.545055940830946E+01  -2.545055787479812E+01  -2.545055630246587E+01
  -2.545055469032995E+01  -2.545055303738273E+01  -2.545055134259108E+01
  -2.545054960489571E+01  -2.545054782321051E+01  -2.545054599642189E+01
  -2.545054412338803E+01  -2.545054220293828E+01  -2.545054023387226E+01
  -2.545053821495929E+01  -2.545053614493748E+01  -2.545053402251301E+01
  -2.545053184635933E+01  -2.545052961511626E+01  -2.545052732738925E+01
  -2.545052498174839E+01  -2.545052257672759E+01  -2.545052011082369E+01
  -2.545051758249540E+01  -2.545051499016247E+01  -2.545051233220464E+01
  -2.545050960696061E+01  -2.545050681272704E+01  -2.545050394775748E+01
  -2.545050101026124E+01  -2.545049799840234E+01  -2.545049491029827E+01
  -2.545049174401894E+01  -2.545048849758531E+01  -2.545048516896832E+01
  -2.545048175608750E+01  -2.545047825680973E+01  -2.545047466894789E+01
  -2.545047099025950E+01  -2.545046721844528E+01  -2.545046335114780E+01
  -2.545045938594991E+01  -2.545045532037328E+01  -2.545045115187686E+01
  -2.545044687785525E+01  -2.545044249563712E+01  -2.545043800248350E+01
  -2.545043339558609E+01  -2.545042867206550E+01  -2.545042382896945E+01
  -2.545041886327093E+01  -2.545041377186630E+01  -2.545040855157335E+01
  -2.545040319912931E+01  -2.545039771118884E+01  -2.545039208432189E+01
  -2.545038631501159E+01  -2.545038039965205E+01  -2.545037433454610E+01
  -2.545036811590296E+01  -2.545036173983591E+01  -2.545035520235985E+01
  -2.545034849938878E+01  -2.545034162673326E+01  -2.545033458009784E+01
  -2.545032735507829E+01  -2.545031994715893E+01  -2.545031235170974E+01
  -2.545030456398352E+01  -2.545029657911287E+01  -2.545028839210723E+01
  -2.545027999784965E+01  -2.545027139109371E+01  -2.545026256646014E+01
  -2.545025351843352E+01  -2.545024424135881E+01  -2.545023472943783E+01
  -2.545022497672563E+01  -2.545021497712675E+01  -2.545020472439145E+01
  -2.545019421211182E+01  -2.545018343371767E+01  -2.545017238247258E+01
  -2.545016105146954E+01  -2.545014943362676E+01  -2.545013752168315E+01
  -2.545012530819383E+01  -2.545011278552548E+01  -2.545009994585156E+01
  -2.545008678114738E+01  -2.545007328318518E+01  -2.545005944352889E+01
  -2.545004525352892E+01  -2.545003070431674E+01  -2.545001578679931E+01
  -2.545000049165345E+01  -2.544998480932001E+01  -2.544996872999780E+01
  -2.544995224363762E+01  -2.544993533993583E+01  -2.544991800832810E+01
  -2.544990023798254E+01  -2.544988201779317E+01  -2.544986333637297E+01
  -2.544984418204655E+01  -2.544982454284303E+01  -2.544980440648865E+01
  -2.544978376039884E+01  -2.544976259167051E+01  -2.544974088707412E+01
  -2.544971863304509E+01  -2.544969581567564E+01  -2.544967242070588E+01
  -2.544964843351504E+01  -2.544962383911223E+01  -2.544959862212728E+01
  -2.544957276680083E+01  -2.544954625697467E+01  -2.544951907608167E+01
  -2.544949120713539E+01  -2.544946263271944E+01  -2.544943333497655E+01
  -2.544940329559766E+01  -2.544937249581011E+01  -2.544934091636625E+01
  -2.544930853753124E+01  -2.544927533907080E+01  -2.544924130023847E+01
  -2.544920639976277E+01  -2.544917061583384E+01  -2.544913392608987E+01
  -2.544909630760309E+01  -2.544905773686544E+01  -2.544901818977399E+01
  -2.544897764161570E+01  -2.544893606705221E+01  -2.544889344010389E+01
  -2.544884973413354E+01  -2.544880492182993E+01  -2.544875897519068E+01
  -2.544871186550467E+01  -2.544866356333431E+01  -2.544861403849698E+01
  -2.544856326004619E+01  -2.544851119625254E+01  -2.544845781458347E+01
  -2.544840308168325E+01  -2.544834696335212E+01  -2.544828942452484E+01
  -2.544823042924889E+01  -2.544816994066195E+01  -2.544810792096895E+01
  -2.544804433141849E+01  -2.544797913227860E+01  -2.544791228281191E+01
  -2.544784374125035E+01  -2.544777346476896E+01  -2.544770140945921E+01
  -2.544762753030161E+01  -2.544755178113759E+01  -2.544747411464066E+01
  -2.544739448228705E+01  -2.544731283432514E+01  -2.544722911974466E+01
  -2.544714328624482E+01  -2.544705528020155E+01  -2.544696504663424E+01
  -2.544687252917124E+01  -2.544677767001486E+01  -2.544668040990522E+01
  -2.544658068808330E+01  -2.544647844225309E+01  -2.544637360854266E+01
  -2.544626612146445E+01  -2.544615591387420E+01  -2.544604291692942E+01
  -2.544592706004610E+01  -2.544580827085501E+01  -2.544568647515632E+01
  -2.544556159687354E+01  -2.544543355800597E+01  -2.544530227858019E+01
  -2.544516767660010E+01  -2.544502966799583E+01  -2.544488816657142E+01
  -2.544474308395106E+01  -2.544459432952400E+01  -2.544444181038814E+01
  -2.544428543129208E+01  -2.544412509457585E+01  -2.544396070011004E+01
  -2.544379214523344E+01  -2.544361932468911E+01  -2.544344213055876E+01
  -2.544326045219567E+01  -2.544307417615571E+01  -2.544288318612671E+01
  -2.544268736285612E+01  -2.544248658407669E+01  -2.544228072443041E+01
  -2.544206965539054E+01  -2.544185324518156E+01  -2.544163135869723E+01
  -2.544140385741649E+01  -2.544117059931736E+01  -2.544093143878853E+01
  -2.544068622653889E+01  -2.544043480950461E+01  -2.544017703075403E+01
  -2.543991272939008E+01  -2.543964174045030E+01  -2.543936389480429E+01
  -2.543907901904866E+01  -2.543878693539917E+01  -2.543848746158048E+01
  -2.543818041071280E+01  -2.543786559119585E+01  -2.543754280658998E+01
  -2.543721185549412E+01  -2.543687253142083E+01  -2.543652462266814E+01
  -2.543616791218821E+01  -2.543580217745269E+01  -2.543542719031463E+01
  -2.543504271686714E+01  -2.543464851729822E+01  -2.543424434574223E+01
  -2.543382995012749E+01  -2.543340507202002E+01  -2.543296944646359E+01
  -2.543252280181552E+01  -2.543206485957855E+01  -2.543159533422841E+01
  -2.543111393303713E+01  -2.543062035589195E+01  -2.543011429510969E+01
  -2.542959543524641E+01  -2.542906345290253E+01  -2.542851801652281E+01
  -2.542795878619164E+01  -2.542738541342298E+01  -2.542679754094522E+01
  -2.542619480248063E+01  -2.542557682251933E+01  -2.542494321608761E+01
  -2.542429358851060E+01  -2.542362753516888E+01  -2.542294464124918E+01
  -2.542224448148879E+01  -2.542152661991376E+01  -2.542079060957044E+01
  -2.542003599225052E+01  -2.541926229820918E+01  -2.541846904587624E+01
  -2.541765574156025E+01  -2.541682187914521E+01  -2.541596693977974E+01
  -2.541509039155872E+01  -2.541419168919694E+01  -2.541327027369476E+01
  -2.541232557199551E+01  -2.541135699663448E+01  -2.541036394537926E+01
  -2.540934580086120E+01  -2.540830193019787E+01  -2.540723168460621E+01
  -2.540613439900624E+01  -2.540500939161498E+01  -2.540385596353048E+01
  -2.540267339830563E+01  -2.540146096151166E+01  -2.540021790029081E+01
  -2.539894344289822E+01  -2.539763679823254E+01  -2.539629715535528E+01
  -2.539492368299828E+01  -2.539351552905928E+01  -2.539207182008536E+01
  -2.539059166074359E+01  -2.538907413327919E+01  -2.538751829696028E+01
  -2.538592318750945E+01  -2.538428781652146E+01  -2.538261117086697E+01
  -2.538089221208190E+01  -2.537912987574220E+01  -2.537732307082347E+01
  -2.537547067904533E+01  -2.537357155420010E+01  -2.537162452146542E+01
  -2.536962837670050E+01  -2.536758188572557E+01  -2.536548378358425E+01
  -2.536333277378836E+01  -2.536112752754494E+01  -2.535886668296492E+01
  -2.535654884425308E+01  -2.535417258087904E+01  -2.535173642672870E+01
  -2.534923887923579E+01  -2.534667839849313E+01  -2.534405340634303E+01
  -2.534136228544669E+01  -2.533860337833176E+01  -2.533577498641802E+01
  -2.533287536902035E+01  -2.532990274232886E+01  -2.532685527836546E+01
  -2.532373110391650E+01  -2.532052829944111E+01  -2.531724489795450E+01
  -2.531387888388599E+01  -2.531042819191108E+01  -2.530689070575722E+01
  -2.530326425698264E+01  -2.529954662372784E+01  -2.529573552943911E+01
  -2.529182864156378E+01  -2.528782357021629E+01  -2.528371786681511E+01
  -2.527950902268942E+01  -2.527519446765544E+01  -2.527077156856164E+01
  -2.526623762780244E+01  -2.526158988179984E+01  -2.525682549945232E+01
  -2.525194158055078E+01  -2.524693515416065E+01  -2.524180317696984E+01
  -2.523654253160212E+01  -2.523115002489508E+01  -2.522562238614255E+01
  -2.521995626530065E+01  -2.521414823115720E+01  -2.520819476946395E+01
  -2.520209228103108E+01  -2.519583707978358E+01  -2.518942539077915E+01
  -2.518285334818691E+01  -2.517611699322691E+01  -2.516921227206965E+01
  -2.516213503369552E+01  -2.515488102771365E+01  -2.514744590213993E+01
  -2.513982520113390E+01  -2.513201436269410E+01  -2.512400871631196E+01
  -2.511580348058364E+01  -2.510739376077997E+01  -2.509877454637424E+01
  -2.508994070852777E+01  -2.508088699753330E+01  -2.507160804021611E+01
  -2.506209833729311E+01  -2.505235226068994E+01  -2.504236405081631E+01
  -2.503212781379992E+01  -2.502163751867928E+01  -2.501088699455575E+01
  -2.499986992770568E+01  -2.498857985865280E+01  -2.497701017920195E+01
  -2.496515412943481E+01  -2.495300479466850E+01  -2.494055510237839E+01
  -2.492779781908583E+01  -2.491472554721268E+01  -2.490133072190353E+01
  -2.488760560781773E+01  -2.487354229589261E+01  -2.485913270008009E+01
  -2.484436855405866E+01  -2.482924140792319E+01  -2.481374262485485E+01
  -2.479786337777428E+01  -2.478159464598059E+01  -2.476492721177957E+01
  -2.474785165710471E+01  -2.473035836013448E+01  -2.471243749191027E+01
  -2.469407901295896E+01  -2.467527266992502E+01  -2.465600799221711E+01
  -2.463627428867439E+01  -2.461606064425842E+01  -2.459535591677668E+01
  -2.457414873364431E+01  -2.455242748869095E+01  -2.453018033902021E+01
  -2.450739520192964E+01  -2.448405975189965E+01  -2.446016141766026E+01
  -2.443568737934535E+01  -2.441062456574434E+01  -2.438495965166209E+01
  -2.435867905539858E+01  -2.433176893635996E+01  -2.430421519281417E+01
  -2.427600345980437E+01  -2.424711910723446E+01  -2.421754723814183E+01
  -2.418727268717315E+01  -2.415628001927997E+01  -2.412455352865190E+01
  -2.409207723790593E+01  -2.405883489755149E+01  -2.402480998575193E+01
  -2.398998570840410E+01  -2.395434499955884E+01  -2.391787052220633E+01
  -2.388054466945130E+01  -2.384234956610463E+01  -2.380326707071879E+01
  -2.376327877809591E+01  -2.372236602229895E+01  -2.368050988019729E+01
  -2.363769117557976E+01  -2.359389048386954E+01  -2.354908813747672E+01
  -2.350326423182595E+01  -2.345639863209781E+01  -2.340847098072446E+01
  -2.335946070568132E+01  -2.330934702961830E+01  -2.325810897987554E+01
  -2.320572539943026E+01  -2.315217495882272E+01  -2.309743616911096E+01
  -2.304148739590548E+01  -2.298430687453631E+01  -2.292587272640662E+01
  -2.286616297658799E+01  -2.280515557271422E+01  -2.274282840523120E+01
  -2.267915932906214E+01  -2.261412618674741E+01  -2.254770683312032E+01
  -2.247987916157984E+01  -2.241062113202194E+01  -2.233991080049208E+01
  -2.226772635062045E+01  -2.219404612690219E+01  -2.211884866988396E+01
  -2.204211275331696E+01  -2.196381742333626E+01  -2.188394203972364E+01
  -2.180246631930995E+01  -2.171937038157003E+01  -2.163463479646014E+01
  -2.154824063454495E+01  -2.146016951945585E+01  -2.137040368271875E+01
  -2.127892602098315E+01  -2.118572015567810E+01  -2.109077049511438E+01
  -2.099406229904297E+01  -2.089558174567260E+01  -2.079531600113834E+01
  -2.069325329140263E+01  -2.058938297655919E+01  -2.048369562749602E+01
  -2.037618310486094E+01  -2.026683864025740E+01  -2.015565691958161E+01
  -2.004263416839524E+01  -1.992776823920810E+01  -1.981105870052590E+01
  -1.969250692749619E+01  -1.957211619396260E+01  -1.944989176571456E+01
  -1.932584099469272E+01  -1.919997341388530E+01  -1.907230083262206E+01
  -1.894283743194344E+01  -1.881159985969381E+01  -1.867860732495531E+01
  -1.854388169140861E+01  -1.840744756917370E+01  -1.826933240465108E+01
  -1.812956656785124E+01  -1.798818343666579E+01  -1.784521947750167E+01
  -1.770071432166592E+01  -1.755471083685663E+01  -1.740725519308436E+01
  -1.725839692231754E+01  -1.710818897111730E+01  -1.695668774549997E+01
  -1.680395314724061E+01  -1.665004860081004E+01  -1.649504107011758E+01
  -1.633900093356176E+01  -1.618200112529305E+01  -1.602411672196494E+01
  -1.586542497268758E+01  -1.570600531057362E+01  -1.554593935969989E+01
  -1.538531093780320E+01  -1.522420605502928E+01  -1.506271290901880E+01
  -1.490092187653500E+01  -1.473892550171386E+01  -1.457681848084142E+01
  -1.441469764333488E+01  -1.425266192832598E+01  -1.409081235591636E+01
  -1.392925199180936E+01  -1.376808590362725E+01  -1.360742110681788E+01
  -1.344736649766229E+01  -1.328803277053907E+01  -1.312952926833375E+01
  -1.297195339146201E+01  -1.281539710677590E+01  -1.265994913937891E+01
  -1.250569439959617E+01  -1.235271337998145E+01  -1.220108152259221E+01
  -1.205086855688887E+01  -1.190213780875961E+01  -1.175494602961532E+01
  -1.160934444102551E+01  -1.146537660879023E+01  -1.132307721900610E+01
  -1.118247136902906E+01  -1.104357386408897E+01  -1.090638852584684E+01
  -1.077090627513093E+01  -1.063710716059074E+01  -1.050497025132867E+01
  -1.037447487976742E+01  -1.024560063740109E+01  -1.011832737221137E+01
  -9.992635184377901E+00  -9.868504423139042E+00  -9.745915683406839E+00
  -9.624849802494431E+00  -9.505287856912368E+00  -9.387211159229583E+00
  -9.270601254995880E+00  -9.155439919721834E+00  -9.041709155913717E+00
  -8.929391190160331E+00  -8.818468470269035E+00  -8.708923662449223E+00
  -8.600739648540543E+00  -8.493899523284387E+00  -8.388386591636902E+00
  -8.284184366121588E+00  -8.181276564220761E+00  -8.079647105803845E+00
  -7.979280110591970E+00  -7.880159895657453E+00  -7.782270972957233E+00
  -7.685598046899726E+00  -7.590126011943589E+00  -7.495839950208983E+00
  -7.402725129169525E+00  -7.310766999376624E+00  -7.219951192106398E+00
  -7.130263517141648E+00  -7.041689960551395E+00  -6.954216682498394E+00
  -6.867830015074469E+00  -6.782516460163209E+00  -6.698262687329320E+00
  -6.615055531734718E+00  -6.532881992080532E+00  -6.451729228574931E+00
  -6.371584560926381E+00  -6.292435466361796E+00  -6.214269577669572E+00
  -6.137074681266846E+00  -6.060838715290932E+00  -5.985549767714505E+00
  -5.911196074484111E+00  -5.837766017682016E+00  -5.765248123710736E+00
  -5.693631061500241E+00  -5.622903640737452E+00  -5.553054810117625E+00
  -5.484073655617625E+00  -5.415949398790508E+00  -5.348671395081371E+00
  -5.282229132164169E+00  -5.216612228299046E+00  -5.151810430710259E+00
  -5.087813613984075E+00  -5.024611778486705E+00  -4.962195048801854E+00
  -4.900553672187600E+00  -4.839678017052602E+00  -4.779558571451062E+00
  -4.720185941596503E+00  -4.661550850393994E+00  -4.603644135990524E+00
  -4.546456750343525E+00  -4.489979757807013E+00  -4.434204333735425E+00
  -4.379121763104766E+00  -4.324723439150810E+00  -4.271000862024344E+00
  -4.217945637462989E+00  -4.165549475479599E+00  -4.113804189066970E+00
  -4.062701692918527E+00  -4.012234002165070E+00  -3.962393231127035E+00
  -3.913171592082378E+00  -3.864561394049747E+00  -3.816555041586702E+00
  -3.769145033602956E+00  -3.722323962188280E+00  -3.676084511454998E+00
  -3.630419456394911E+00  -3.585321661750300E+00  -3.540784080899105E+00
  -3.496799754753800E+00  -3.453361810674063E+00  -3.410463461392919E+00
  -3.368098003956171E+00  -3.326258818675098E+00  -3.284939368092068E+00
  -3.244133195959069E+00  -3.203833926228926E+00  -3.164035262058977E+00
  -3.124730984827230E+00  -3.085914953160655E+00  -3.047581101975584E+00
  -3.009723441530062E+00  -2.972336056487880E+00  -2.935413104994353E+00
  -2.898948817763462E+00  -2.862937497176418E+00  -2.827373516391410E+00
  -2.792251318464360E+00  -2.757565415480681E+00  -2.723310387697747E+00
  -2.689480882698052E+00  -2.656071614552908E+00  -2.623077362996473E+00
  -2.590492972610100E+00  -2.558313352016778E+00  -2.526533473085587E+00
  -2.495148370146076E+00  -2.464153139212319E+00  -2.433542937216702E+00
  -2.403312981253148E+00  -2.373458547829792E+00  -2.343974972130948E+00
  -2.314857647288172E+00  -2.286102023660485E+00  -2.257703608123436E+00
  -2.229657963367065E+00  -2.201960707202576E+00  -2.174607511877573E+00
  -2.147594103399883E+00  -2.120916260869703E+00  -2.094569815820088E+00
  -2.068550651565631E+00  -2.042854702559195E+00  -2.017477953756700E+00
  -1.992416439989721E+00  -1.967666245345951E+00  -1.943223502557336E+00
  -1.919084392395777E+00  -1.895245143076403E+00  -1.871702029668190E+00
  -1.848451373511950E+00  -1.825489541645538E+00  -1.802812946236172E+00
  -1.780418044019854E+00  -1.758301335747704E+00  -1.736459365639201E+00
  -1.714888720842230E+00  -1.693586030899781E+00  -1.672547967223343E+00
  -1.651771242572778E+00  -1.631252610542694E+00  -1.610988865055200E+00
  -1.590976839858919E+00  -1.571213408034291E+00  -1.551695481504952E+00
  -1.532420010555236E+00  -1.513383983353649E+00  -1.494584425482252E+00
  -1.476018399471924E+00  -1.457683004343350E+00  -1.439575375153754E+00
  -1.421692682549249E+00  -1.404032132322729E+00  -1.386590964977287E+00
  -1.369366455295021E+00  -1.352355911911224E+00  -1.335556676893855E+00
  -1.318966125328221E+00  -1.302581664906843E+00  -1.286400735524390E+00
  -1.270420808877661E+00  -1.254639388070551E+00  -1.239054007223860E+00
  -1.223662232314069E+00  -1.208461655788787E+00  -1.193449903867268E+00
  -1.178624632528691E+00  -1.163983521963281E+00  -1.149524286211136E+00
  -1.135244665986071E+00  -1.121142430067246E+00  -1.107215374950532E+00
  -1.093461324504204E+00  -1.079878129628919E+00  -1.066463667921915E+00
  -1.053215843345358E+00  -1.040132582150377E+00  -1.027211847859683E+00
  -1.014451617498067E+00  -1.001849897254181E+00  -9.894047180841903E-01
  -9.771141354041082E-01  -9.649762287859398E-01  -9.529891016576261E-01
  -9.411508810066852E-01  -9.294597181892165E-01  -9.179137841373475E-01
  -9.065112759817371E-01  -8.952504120572911E-01  -8.841294328311099E-01
  -8.731466006275622E-01  -8.623001993567756E-01  -8.515885342464820E-01
  -8.410099315772188E-01  -8.305627384207952E-01  -8.202453223820245E-01
  -8.100560713436640E-01  -7.999933932145058E-01  -7.900557156806235E-01
  -7.802414859596827E-01  -7.705491705583221E-01  -7.609772550325435E-01
  -7.515242437510709E-01  -7.421886596616617E-01  -7.329690440603079E-01
  -7.238639563633134E-01  -7.148719738822047E-01  -7.059916916014222E-01
  -6.972217219587959E-01  -6.885606946287258E-01  -6.800072563080692E-01
  -6.715600705046899E-01  -6.632178173296015E-01  -6.549791932867216E-01
  -6.468429110753584E-01  -6.388076993848614E-01  -6.308723026970589E-01
  -6.230354810900712E-01  -6.152960100445807E-01  -6.076526802524891E-01
  -6.001042974279646E-01  -5.926496821208361E-01  -5.852876695322932E-01
  -5.780171093328925E-01  -5.708368654828103E-01  -5.637458160543352E-01
  -5.567428530565696E-01  -5.498268822622948E-01  -5.429968230370062E-01
  -5.362516081700528E-01  -5.295901837078871E-01  -5.230115087893865E-01
  -5.165145554832082E-01  -5.100983086271824E-01  -5.037617656696827E-01
  -4.975039365129791E-01  -4.913238433585362E-01  -4.852205205542233E-01
  -4.791930144434368E-01  -4.732403832160826E-01  -4.673616967614203E-01
  -4.615560365227324E-01  -4.558224953537935E-01  -4.501601773771325E-01
  -4.445681978440447E-01  -4.390456829963500E-01  -4.335917699298698E-01
  -4.282056064595897E-01  -4.228863509865108E-01  -4.176331723661424E-01
  -4.124452497786367E-01  -4.073217726005360E-01  -4.022619402781061E-01
  -3.972649622022535E-01  -3.923300575849872E-01  -3.874564553374192E-01
  -3.826433939492848E-01  -3.778901213699482E-01  -3.731958948908998E-01
  -3.685599810297011E-01  -3.639816554153785E-01  -3.594602026752419E-01
  -3.549949163231000E-01  -3.505850986488770E-01  -3.462300606095888E-01
  -3.419291217216807E-01  -3.376816099547026E-01  -3.334868616262976E-01
  -3.293442212985068E-01  -3.252530416753501E-01  -3.212126835016867E-01
  -3.172225154633335E-01  -3.132819140884149E-01  -3.093902636499503E-01
  -3.055469560696404E-01  -3.017513908228559E-01  -2.980029748448061E-01
  -2.943011224378669E-01  -2.906452551800694E-01  -2.870348018347162E-01
  -2.834691982611260E-01  -2.799478873264872E-01  -2.764703188188009E-01
  -2.730359493609140E-01  -2.696442423256106E-01  -2.662946677517654E-01
  -2.629867022615377E-01  -2.597198289785885E-01  -2.564935374473217E-01
  -2.533073235531214E-01  -2.501606894435834E-01  -2.470531434507273E-01
  -2.439842000141684E-01  -2.409533796052520E-01  -2.379602086521223E-01
  -2.350042194657278E-01  -2.320849501667451E-01  -2.292019446134061E-01
  -2.263547523302282E-01  -2.235429284376244E-01  -2.207660335823900E-01
  -2.180236338690553E-01  -2.153153007920847E-01  -2.126406111689258E-01
  -2.099991470738826E-01  -2.073904957728160E-01  -2.048142496586535E-01
  -2.022700061876975E-01  -1.997573678167303E-01  -1.972759419408941E-01
  -1.948253408323466E-01  -1.924051815796799E-01  -1.900150860280859E-01
  -1.876546807202730E-01  -1.853235968381090E-01  -1.830214701449943E-01
  -1.807479409289502E-01  -1.785026539464105E-01  -1.762852583667168E-01
  -1.740954077172980E-01  -1.719327598295344E-01  -1.697969767852946E-01
  -1.676877248641317E-01  -1.656046744911425E-01  -1.635475001854679E-01
  -1.615158805094368E-01  -1.595094980183424E-01  -1.575280392108376E-01
  -1.555711944799530E-01  -1.536386580647179E-01  -1.517301280023855E-01
  -1.498453060812511E-01  -1.479838977940542E-01  -1.461456122919636E-01
  -1.443301623391291E-01  -1.425372642678018E-01  -1.407666379340110E-01
  -1.390180066737890E-01  -1.372910972599444E-01  -1.355856398593676E-01
  -1.339013679908696E-01  -1.322380184835449E-01  -1.305953314356484E-01
  -1.289730501739872E-01  -1.273709212138134E-01  -1.257886942192171E-01
  -1.242261219640120E-01  -1.226829602931034E-01  -1.211589680843413E-01
  </PP_LOCAL>
  <PP_NONLOCAL>
    <PP_BETA.1 index="1" label="2S" angular_momentum="0" cutoff_radius_index="759" cutoff_radius="1.0000000000000000" ultrasoft_cutoff_radius="1.3000000000000000">
   1.155727517846622E-03   1.170264770465515E-03   1.184984878831410E-03
   1.199890142971893E-03   1.217397927721839E-03   1.228459549482780E-03
   1.241195305622320E-03   1.263259363657218E-03   1.268007053216141E-03
   1.295074917198255E-03   1.300748966091933E-03   1.330695954251074E-03
   1.340631483899360E-03   1.358136165780108E-03   1.378424362045438E-03
   1.396517513377563E-03   1.411939856459016E-03   1.428118714549204E-03
   1.446909627234608E-03   1.467443940393831E-03   1.487870252943516E-03
   1.498753744379536E-03   1.524220542290664E-03   1.537727925093199E-03
   1.561092174447831E-03   1.580778797029433E-03   1.599815208954622E-03
   1.626623101358166E-03   1.639338119298783E-03   1.659826932132735E-03
   1.681109238570358E-03   1.695093801407199E-03   1.727572840687058E-03
   1.749093424622622E-03   1.773237600290745E-03   1.796426094361842E-03
   1.803882796608022E-03   1.838891482870808E-03   1.860413500402947E-03
   1.882202142576728E-03   1.909074530080268E-03   1.926513621199999E-03
   1.949671959684818E-03   1.979454915552653E-03   2.001447773010312E-03
   2.030512511579124E-03   2.053698413255339E-03   2.080963799559271E-03
   2.103230922092497E-03   2.132845492437474E-03   2.157782825652738E-03
   2.183413260296863E-03   2.218044193485424E-03   2.246697064055420E-03
   2.265761828874335E-03   2.303031323417887E-03   2.323617328653216E-03
   2.351109567672344E-03   2.386879306693401E-03   2.418790000646431E-03
   2.449188612974051E-03   2.475606203700409E-03   2.506218315747072E-03
   2.538478918604786E-03   2.575344539238494E-03   2.602866001893911E-03
   2.635484813410777E-03   2.670003190187120E-03   2.700379280738741E-03
   2.741004752146198E-03   2.773356530424403E-03   2.805668072442757E-03
   2.843539038350495E-03   2.878634250975037E-03   2.914912122531477E-03
   2.952941919740909E-03   2.989911120122923E-03   3.024797405923790E-03
   3.065699374235814E-03   3.105316447895190E-03   3.141681784770478E-03
   3.182785559307205E-03   3.219181774981122E-03   3.259535638197475E-03
   3.303325383318373E-03   3.345006932871708E-03   3.387960819572877E-03
   3.432513196244158E-03   3.472015512560905E-03   3.519212630111596E-03
   3.560032422024517E-03   3.604915381496654E-03   3.651217934483864E-03
   3.694641714570929E-03   3.742479563118184E-03   3.789452642277036E-03
   3.836163930016845E-03   3.886727931402156E-03   3.934471755530466E-03
   3.984382996205849E-03   4.031872840977335E-03   4.084222122989478E-03
   4.138756565484181E-03   4.185708773355612E-03   4.239736203120847E-03
   4.295729444424912E-03   4.347193925988591E-03   4.404182740205487E-03
   4.457763263862546E-03   4.516318954286669E-03   4.570767373442364E-03
   4.630003861132159E-03   4.686354515875901E-03   4.745181147907340E-03
   4.805510486161069E-03   4.865201326478052E-03   4.924042318382782E-03
   4.991587620719218E-03   5.052661233721556E-03   5.114297443343407E-03
   5.178698241510349E-03   5.244570282704697E-03   5.310309062302176E-03
   5.377010179430319E-03   5.443207837843633E-03   5.517057834079298E-03
   5.582421954551664E-03   5.655191530584469E-03   5.724028374687995E-03
   5.796533444836660E-03   5.867559286027835E-03   5.943319997062824E-03
   6.018862088951138E-03   6.094398911517918E-03   6.168761429797553E-03
   6.249119257368985E-03   6.327353727121454E-03   6.406382335944316E-03
   6.485881848817432E-03   6.568200591289319E-03   6.650772832800300E-03
   6.735704061544057E-03   6.818556023344136E-03   6.905665286064289E-03
   6.990399540783454E-03   7.079325116194912E-03   7.170524130427569E-03
   7.259576271316626E-03   7.349875994463129E-03   7.441607683857820E-03
   7.536168233064688E-03   7.631172964173150E-03   7.726768974532838E-03
   7.825287187179342E-03   7.922022330375089E-03   8.021915480278197E-03
   8.123189865042901E-03   8.224439437241826E-03   8.329324983765818E-03
   8.433667032559211E-03   8.539476309771588E-03   8.646631033728980E-03
   8.755193960443886E-03   8.866007358066974E-03   8.977861515750418E-03
   9.091043927588638E-03   9.205139806029328E-03   9.319918130637372E-03
   9.438057979079040E-03   9.555813046686068E-03   9.676608173918466E-03
   9.799679796380523E-03   9.921009891591615E-03   1.004727809152783E-02
   1.017297342118817E-02   1.030089192055372E-02   1.043029125867867E-02
   1.056154377139884E-02   1.069535855647397E-02   1.082947091940289E-02
   1.096503872309385E-02   1.110447857849650E-02   1.124262734002990E-02
   1.138355936415958E-02   1.152759416194682E-02   1.167261332269187E-02
   1.181972250889518E-02   1.196778214133032E-02   1.211900043152814E-02
   1.227037874068804E-02   1.242526490707874E-02   1.258174977945381E-02
   1.274003912660704E-02   1.289954920170144E-02   1.306317160804937E-02
   1.322586905423839E-02   1.339279593956721E-02   1.356090236497409E-02
   1.373213930303296E-02   1.390541523227096E-02   1.407893054960307E-02
   1.425603403477360E-02   1.443682423311432E-02   1.461669945456290E-02
   1.480166251748605E-02   1.498713212783898E-02   1.517662171434409E-02
   1.536674489218282E-02   1.556066844465054E-02   1.575627673979652E-02
   1.595415251991872E-02   1.615407838988547E-02   1.635822331012826E-02
   1.656369677117109E-02   1.677212641930637E-02   1.698353094049421E-02
   1.719703924677307E-02   1.741267096137911E-02   1.763211201604142E-02
   1.785406548080193E-02   1.807862474113375E-02   1.830516262304727E-02
   1.853599221773528E-02   1.876962855884368E-02   1.900560463535084E-02
   1.924367990818654E-02   1.948652921509986E-02   1.973082542045312E-02
   1.997922897268767E-02   2.023114457018371E-02   2.048567983905691E-02
   2.074288929669321E-02   2.100380021856774E-02   2.126853195032408E-02
   2.153546187712974E-02   2.180647189841300E-02   2.208094793457938E-02
   2.235848786969430E-02   2.263999175856179E-02   2.292416615605264E-02
   2.321252936465945E-02   2.350467052042204E-02   2.380016316151057E-02
   2.409997520909313E-02   2.440261601264293E-02   2.470995987843838E-02
   2.502092691013380E-02   2.533557011144039E-02   2.565442909491744E-02
   2.597640900801723E-02   2.630376260710565E-02   2.663414673949016E-02
   2.696940043552543E-02   2.730831088211128E-02   2.765166330353153E-02
   2.799952470170464E-02   2.835163899251381E-02   2.870811437632304E-02
   2.906910541605523E-02   2.943501418640682E-02   2.980522034244748E-02
   3.017975034315601E-02   3.055989635349521E-02   3.094419086834721E-02
   3.133354330577509E-02   3.172737978207119E-02   3.212668223956605E-02
   3.253025866889292E-02   3.293982209505053E-02   3.335401809297922E-02
   3.377366097718681E-02   3.419815576048446E-02   3.462839754731517E-02
   3.506371670329100E-02   3.550458656510269E-02   3.595130798906210E-02
   3.640360766353057E-02   3.686151566227780E-02   3.732497596364226E-02
   3.779456450868324E-02   3.826971279235014E-02   3.875096765847896E-02
   3.923845986596275E-02   3.973182211446202E-02   4.023151395264435E-02
   4.073740608392296E-02   4.124972900655166E-02   4.176846351693575E-02
   4.229386213110864E-02   4.282563764464431E-02   4.336427713161362E-02
   4.390972931460801E-02   4.446200347400930E-02   4.502102883736470E-02
   4.558726926679535E-02   4.616046899630311E-02   4.674094991725219E-02
   4.732899262801782E-02   4.792401968587212E-02   4.852680097775375E-02
   4.913687949116508E-02   4.975483628870414E-02   5.038062965757195E-02
   5.101404043614588E-02   5.165558567921691E-02   5.230515271657987E-02
   5.296278336327109E-02   5.362896803580863E-02   5.430328568531539E-02
   5.498604914371219E-02   5.567761629037715E-02   5.637767550527606E-02
   5.708681376049540E-02   5.780442326357127E-02   5.853120497500841E-02
   5.926719020867210E-02   6.001248412344129E-02   6.076699079377779E-02
   6.153104139677090E-02   6.230479908108055E-02   6.308817959107049E-02
   6.388141509350032E-02   6.468462613600323E-02   6.549785248060846E-02
   6.632147396352739E-02   6.715517051706943E-02   6.799958451712307E-02
   6.885446805071105E-02   6.972020152245317E-02   7.059687990111740E-02
   7.148426089354842E-02   7.238289394884578E-02   7.329309603938849E-02
   7.421425748819566E-02   7.514732908174704E-02   7.609200170692620E-02
   7.704852209228719E-02   7.801721594592426E-02   7.899788858574475E-02
   7.999087592422160E-02   8.099638516032126E-02   8.201457501216591E-02
   8.304554656333796E-02   8.408943571938732E-02   8.514638957129872E-02
   8.621655748370305E-02   8.730026982299677E-02   8.839753697921804E-02
   8.950838418519069E-02   9.063345921086974E-02   9.177254894063847E-02
   9.292590684944457E-02   9.409372094536916E-02   9.527637019372470E-02
   9.647349721105414E-02   9.768598610823442E-02   9.891360743468525E-02
   1.001563432491892E-01   1.014151139339168E-01   1.026891768855061E-01
   1.039797046539963E-01   1.052859818807441E-01   1.066090271564715E-01
   1.079483993180137E-01   1.093045293348949E-01   1.106778159982342E-01
   1.120681857208634E-01   1.134760611698420E-01   1.149016874595628E-01
   1.163449101368661E-01   1.178062734347209E-01   1.192862704853033E-01
   1.207843409741685E-01   1.223014822911406E-01   1.238373953565084E-01
   1.253927972947846E-01   1.269675146390430E-01   1.285620035803703E-01
   1.301763010824217E-01   1.318109556314049E-01   1.334660673201302E-01
   1.351418359219299E-01   1.368385086907953E-01   1.385565000643965E-01
   1.402958873701312E-01   1.420571369437873E-01   1.438403811485358E-01
   1.456457288555608E-01   1.474739590805143E-01   1.493247715537116E-01
   1.511989582066278E-01   1.530963272024053E-01   1.550174579836252E-01
   1.569626526564853E-01   1.589320638046701E-01   1.609261787259637E-01
   1.629449458686647E-01   1.649890631210447E-01   1.670586779902621E-01
   1.691540747699651E-01   1.712756216103077E-01   1.734236770376612E-01
   1.755984173699172E-01   1.778002564927057E-01   1.800295365678881E-01
   1.822866213156402E-01   1.845717871996317E-01   1.868854372315258E-01
   1.892278316723282E-01   1.915994831296430E-01   1.940004842988561E-01
   1.964314172222359E-01   1.988926086778040E-01   2.013843099940757E-01
   2.039069813726115E-01   2.064610567464609E-01   2.090468116994337E-01
   2.116646953367933E-01   2.143149719858854E-01   2.169982187709962E-01
   2.197147086235471E-01   2.224648706135017E-01   2.252490836056609E-01
   2.280678423588220E-01   2.309215273361360E-01   2.338104038547133E-01
   2.367350671575839E-01   2.396959337043398E-01   2.426933621795868E-01
   2.457278830475822E-01   2.487998138002929E-01   2.519096891777401E-01
   2.550579675350768E-01   2.582450156237144E-01   2.614713498865271E-01
   2.647374723788687E-01   2.680437672613500E-01   2.713907301388616E-01
   2.747789516878356E-01   2.782087452339610E-01   2.816807248200348E-01
   2.851952088741037E-01   2.887529260360928E-01   2.923542288144247E-01
   2.959997040657072E-01   2.996898143909519E-01   3.034249824473001E-01
   3.072059008312955E-01   3.110330554740806E-01   3.149068519950511E-01
   3.188279304838098E-01   3.227968918416266E-01   3.268141261385935E-01
   3.308802582110211E-01   3.349958838522973E-01   3.391614635552074E-01
   3.433776349248028E-01   3.476449147763319E-01   3.519639676361592E-01
   3.563352443223096E-01   3.607593636880040E-01   3.652369984989043E-01
   3.697686357660181E-01   3.743549305019940E-01   3.789964146049165E-01
   3.836937237940248E-01   3.884474897120533E-01   3.932583078123670E-01
   3.981267505672790E-01   4.030534916119528E-01   4.080391578945672E-01
   4.130842794638419E-01   4.181896117246033E-01   4.233556934556759E-01
   4.285832150748412E-01   4.338727992438507E-01   4.392250574442507E-01
   4.446406699347847E-01   4.501202435318099E-01   4.556644848928002E-01
   4.612740526465977E-01   4.669494840234769E-01   4.726915642285192E-01
   4.785008979579146E-01   4.843781700321443E-01   4.903239760903162E-01
   4.963390814626294E-01   5.024240597466729E-01   5.085796689834297E-01
   5.148064063677893E-01   5.211051438761913E-01   5.274763802985873E-01
   5.339208469936310E-01   5.404392484220821E-01   5.470321624900052E-01
   5.537003434539756E-01   5.604443570209767E-01   5.672649090696851E-01
   5.741626399769046E-01   5.811382078800591E-01   5.881922610927006E-01
   5.953254572792801E-01   6.025383886504088E-01   6.098317539601297E-01
   6.172060941237234E-01   6.246621597426767E-01   6.322004448184089E-01
   6.398216245052595E-01   6.475262555088648E-01   6.553149947618309E-01
   6.631883860961949E-01   6.711469750792318E-01   6.791914008303124E-01
   6.873221853813050E-01   6.955398561283275E-01   7.038449447143336E-01
   7.122379702070631E-01   7.207194271793043E-01   7.292898246284238E-01
   7.379496595027319E-01   7.466992871432865E-01   7.555392423002800E-01
   7.644699171085918E-01   7.734916620171219E-01   7.826049199995637E-01
   7.918100268925201E-01   8.011072603471803E-01   8.104970070318132E-01
   8.199795216170003E-01   8.295550286774969E-01   8.392238032610848E-01
   8.489859795221122E-01   8.588418155865298E-01   8.687913686575754E-01
   8.788347473026761E-01   8.889720766668532E-01   8.992033345778836E-01
   9.095285007480243E-01   9.199475927285476E-01   9.304604606990381E-01
   9.410670027466352E-01   9.517670099172477E-01   9.625603112085059E-01
   9.734465824591041E-01   9.844255317222803E-01   9.954967716761018E-01
   1.006659879889369E+00   1.017914348032576E+00   1.029259651819942E+00
   1.040695215064929E+00   1.052220299916002E+00   1.063834246899816E+00
   1.075536211308290E+00   1.087325344603386E+00   1.099200708968269E+00
   1.111161283452176E+00   1.123205981047789E+00   1.135333643610835E+00
   1.147542993030171E+00   1.159832755588084E+00   1.172201446383454E+00
   1.184647608903077E+00   1.197169628666089E+00   1.209765818099740E+00
   1.222434398919148E+00   1.235173479030394E+00   1.247981078927339E+00
   1.260855127322955E+00   1.273793399235487E+00   1.286793615547367E+00
   1.299853381144814E+00   1.312970143565110E+00   1.326141288156350E+00
   1.339364036759662E+00   1.352635550220370E+00   1.365952815561627E+00
   1.379312682793667E+00   1.392711979329590E+00   1.406147275851353E+00
   1.419615092023236E+00   1.433111796107724E+00   1.446633630520282E+00
   1.460176713253205E+00   1.473736987158688E+00   1.487310335510955E+00
   1.500892417309174E+00   1.514478837010145E+00   1.528065008453737E+00
   1.541646227993027E+00   1.555217688279839E+00   1.568774406266343E+00
   1.582311253688331E+00   1.595823052268031E+00   1.609304392464651E+00
   1.622749841525490E+00   1.636153760952240E+00   1.649510430794294E+00
   1.662814003833063E+00   1.676058546154479E+00   1.689238007551850E+00
   1.702346209055932E+00   1.715376905601673E+00   1.728323786991197E+00
   1.741180418887083E+00   1.753940327593128E+00   1.766596984411606E+00
   1.779143779489260E+00   1.791574094650940E+00   1.803881276526312E+00
   1.816058649486877E+00   1.828099550065730E+00   1.839997310940475E+00
   1.851745316953270E+00   1.863336979813823E+00   1.874765807136555E+00
   1.886025341551942E+00   1.897109268791468E+00   1.908011383742860E+00
   1.918725622970243E+00   1.929246085028950E+00   1.939567068256281E+00
   1.949683106562702E+00   1.959588930828971E+00   1.969279573913582E+00
   1.978750341329715E+00   1.987996886173335E+00   1.997015186028847E+00
   2.005801605952996E+00   2.014352916579469E+00   2.022666325670116E+00
   2.030739518064252E+00   2.038570665759494E+00   2.046158447605251E+00
   2.053502121443131E+00   2.060601508894251E+00   2.067457035137579E+00
   2.074069751117889E+00   2.080441362564869E+00   2.086574235228795E+00
   2.092471436209848E+00   2.098136691312703E+00   2.103574497362303E+00
   2.108789982997365E+00   2.113789042572932E+00   2.118578251852057E+00
   2.123164858383547E+00   2.127556799465737E+00   2.131762615191036E+00
   2.135791450374541E+00   2.139652995955743E+00   2.143357389313621E+00
   2.146915198838116E+00   2.150337261156380E+00   2.153634650766179E+00
   2.156818476135868E+00   2.159899796642463E+00   2.162889434395140E+00
   2.165797771099676E+00   2.168634588026919E+00   2.171408783696108E+00
   2.174128133639528E+00   2.176798991053772E+00   2.179425971663846E+00
   2.182011610427224E+00   2.184555942219077E+00   2.187056115024035E+00
   2.189505893091024E+00   2.191895189098688E+00   2.194209487398410E+00
   2.196429303100928E+00   2.198529510479119E+00   2.200478701626565E+00
   2.202238446186158E+00   2.203762563639970E+00   2.204996279960710E+00
   2.205875399899583E+00   2.206325417706097E+00   2.206260551256406E+00
   2.205582805666495E+00   2.204180942517524E+00   2.201929434622031E+00
   2.198687424011737E+00   2.194297611934687E+00   2.188585168714468E+00
   2.181356634919908E+00   2.172398827799896E+00   2.161477774755497E+00
   2.148337658717125E+00   2.132699851193820E+00   2.114261990962007E+00
   2.092697144925282E+00   2.067653122749419E+00   2.038751865529733E+00
   2.005589092628938E+00   1.967734061898497E+00   1.924729622587989E+00
   1.876092539463755E+00   1.821314103406579E+00   1.759861156597267E+00
   1.691177486620830E+00   1.614685727172997E+00   1.529789763161915E+00
   1.435877751285361E+00   1.332325768099508E+00   1.218502217694862E+00
   1.093773017678132E+00   9.575076938425156E-01   8.090864041287489E-01
   6.479080538069226E-01   4.733995109284876E-01   2.850260789710219E-01
   8.230327159635209E-02  -1.351899860887542E-01  -3.677966425759536E-01
  -6.157652125477426E-01  -8.792317653190267E-01  -1.158200128945595E+00
  -1.452520228625382E+00  -1.761864472448018E+00  -2.085702108141163E+00
  -2.423271530642367E+00  -2.773550417127968E+00  -3.135223740505136E+00
  -3.506649576468853E+00  -3.885822751273853E+00  -4.270336346035101E+00
  -4.657341110184749E+00  -5.043502890033977E+00  -5.424958188186896E+00
  -5.797268031243606E+00  -6.155370375489674E+00  -6.493531308987967E+00
  -6.805295414137309E+00  -7.083435678166815E+00  -7.319903460107826E+00
  -7.505751125454816E+00  -7.631142318298607E+00  -7.685555717082336E+00
  -7.660120501140121E+00  -7.539914050716645E+00  -7.313315332415376E+00
  -6.967274570329928E+00  -6.488176840826356E+00  -5.861884500299373E+00
  -5.073825910397657E+00  -4.108755496812839E+00  -2.953841025858695E+00
  -1.569571763800289E+00  -1.734472400171594E-01   1.762409030318697E-02
  -1.226498113388149E-03   7.313111541339711E-04   6.220419415481461E-04
   7.137951924669819E-04   7.811270776569533E-04   8.478683000374245E-04
   9.106366255825474E-04   9.701231436888937E-04   1.026340333004107E-03
   1.079369374881152E-03   1.129286471017588E-03   1.176167385172897E-03
   1.220090336945140E-03   1.261131689206375E-03   1.299367838273403E-03
   1.334876260486726E-03   1.367730939743162E-03   1.398007600412711E-03
   1.425778906725383E-03   1.451116988608092E-03   1.474092948771281E-03
   1.494774953897028E-03   1.513231246172838E-03   1.529526592090364E-03
   1.543725341290519E-03   1.555888989105370E-03   1.566077132768777E-03
   1.574348090201531E-03   0.000000000000000E+00   0.000000000000000E+00
   0.000000000000000E+00   0.000000000000000E+00   0.000000000000000E+00
   0.000000000000000E+00   0.000000000000000E+00   0.000000000000000E+00
   0.000000000000000E+00   0.000000000000000E+00   0.000000000000000E+00
   0.000000000000000E+00   0.000000000000000E+00   0.000000000000000E+00
   0.000000000000000E+00   0.000000000000000E+00   0.000000000000000E+00
   0.000000000000000E+00   0.000000000000000E+00   0.000000000000000E+00
   0.000000000000000E+00   0.000000000000000E+00   0.000000000000000E+00
   0.000000000000000E+00   0.000000000000000E+00   0.000000000000000E+00
   0.000000000000000E+00   0.000000000000000E+00   0.000000000000000E+00
   0.000000000000000E+00   0.000000000000000E+00   0.000000000000000E+00
   0.000000000000000E+00   0.000000000000000E+00   0.000000000000000E+00
   0.000000000000000E+00   0.000000000000000E+00   0.000000000000000E+00
   0.000000000000000E+00   0.000000000000000E+00   0.000000000000000E+00
   0.000000000000000E+00   0.000000000000000E+00   0.000000000000000E+00
   0.000000000000000E+00   0.000000000000000E+00   0.000000000000000E+00
   0.000000000000000E+00   0.000000000000000E+00   0.000000000000000E+00
   0.000000000000000E+00   0.000000000000000E+00   0.000000000000000E+00
   0.000000000000000E+00   0.000000000000000E+00   0.000000000000000E+00
   0.000000000000000E+00   0.000000000000000E+00   0.000000000000000E+00
   0.000000000000000E+00   0.000000000000000E+00   0.000000000000000E+00
   0.000000000000000E+00   0.000000000000000E+00   0.000000000000000E+00
   0.000000000000000E+00   0.000000000000000E+00   0.000000000000000E+00
   0.000000000000000E+00   0.000000000000000E+00   0.000000000000000E+00
   0.000000000000000E+00   0.000000000000000E+00   0.000000000000000E+00
   0.000000000000000E+00   0.000000000000000E+00   0.000000000000000E+00
   0.000000000000000E+00   0.000000000000000E+00   0.000000000000000E+00
   0.000000000000000E+00   0.000000000000000E+00   0.000000000000000E+00
   0.000000000000000E+00   0.000000000000000E+00   0.000000000000000E+00
   0.000000000000000E+00   0.000000000000000E+00   0.000000000000000E+00
   0.000000000000000E+00   0.000000000000000E+00   0.000000000000000E+00
   0.000000000000000E+00   0.000000000000000E+00   0.000000000000000E+00
   0.000000000000000E+00   0.000000000000000E+00   0.000000000000000E+00
   0.000000000000000E+00   0.000000000000000E+00   0.000000000000000E+00
   0.000000000000000E+00   0.000000000000000E+00   0.000000000000000E+00
   0.000000000000000E+00   0.000000000000000E+00   0.000000000000000E+00
   0.000000000000000E+00   0.000000000000000E+00   0.000000000000000E+00
   0.000000000000000E+00   0.000000000000000E+00   0.000000000000000E+00
   0.000000000000000E+00   0.000000000000000E+00   0.000000000000000E+00
   0.000000000000000E+00   0.000000000000000E+00   0.000000000000000E+00
   0.000000000000000E+00   0.000000000000000E+00   0.000000000000000E+00
   0.000000000000000E+00   0.000000000000000E+00   0.000000000000000E+00
   0.000000000000000E+00   0.000000000000000E+00   0.000000000000000E+00
   0.000000000000000E+00   0.000000000000000E+00   0.000000000000000E+00
   0.000000000000000E+00   0.000000000000000E+00   0.000000000000000E+00
   0.000000000000000E+00   0.000000000000000E+00   0.000000000000000E+00
   0.000000000000000E+00   0.000000000000000E+00   0.000000000000000E+00
   0.000000000000000E+00   0.000000000000000E+00   0.000000000000000E+00
   0.000000000000000E+00   0.000000000000000E+00   0.000000000000000E+00
   0.000000000000000E+00   0.000000000000000E+00   0.000000000000000E+00
   0.000000000000000E+00   0.000000000000000E+00   0.000000000000000E+00
   0.000000000000000E+00   0.000000000000000E+00   0.000000000000000E+00
   0.000000000000000E+00   0.000000000000000E+00   0.000000000000000E+00
   0.000000000000000E+00   0.000000000000000E+00   0.000000000000000E+00
   0.000000000000000E+00   0.000000000000000E+00   0.000000000000000E+00
   0.000000000000000E+00   0.000000000000000E+00   0.000000000000000E+00
   0.000000000000000E+00   0.000000000000000E+00   0.000000000000000E+00
   0.000000000000000E+00   0.000000000000000E+00   0.000000000000000E+00
   0.000000000000000E+00   0.000000000000000E+00   0.000000000000000E+00
   0.000000000000000E+00   0.000000000000000E+00   0.000000000000000E+00
   0.000000000000000E+00   0.000000000000000E+00   0.000000000000000E+00
   0.000000000000000E+00   0.000000000000000E+00   0.000000000000000E+00
   0.000000000000000E+00   0.000000000000000E+00   0.000000000000000E+00
   0.000000000000000E+00   0.000000000000000E+00   0.000000000000000E+00
   0.000000000000000E+00   0.000000000000000E+00   0.000000000000000E+00
   0.000000000000000E+00   0.000000000000000E+00   0.000000000000000E+00
   0.000000000000000E+00   0.000000000000000E+00   0.000000000000000E+00
   0.000000000000000E+00   0.000000000000000E+00   0.000000000000000E+00
   0.000000000000000E+00   0.000000000000000E+00   0.000000000000000E+00
   0.000000000000000E+00   0.000000000000000E+00   0.000000000000000E+00
   0.000000000000000E+00   0.000000000000000E+00   0.000000000000000E+00
   0.000000000000000E+00   0.000000000000000E+00   0.000000000000000E+00
   0.000000000000000E+00   0.000000000000000E+00   0.000000000000000E+00
   0.000000000000000E+00   0.000000000000000E+00   0.000000000000000E+00
   0.000000000000000E+00   0.000000000000000E+00   0.000000000000000E+00
   0.000000000000000E+00   0.000000000000000E+00   0.000000000000000E+00
   0.000000000000000E+00   0.000000000000000E+00   0.000000000000000E+00
   0.000000000000000E+00   0.000000000000000E+00   0.000000000000000E+00
   0.000000000000000E+00   0.000000000000000E+00   0.000000000000000E+00
   0.000000000000000E+00   0.000000000000000E+00   0.000000000000000E+00
   0.000000000000000E+00   0.000000000000000E+00   0.000000000000000E+00
   0.000000000000000E+00   0.000000000000000E+00   0.000000000000000E+00
   0.000000000000000E+00   0.000000000000000E+00   0.000000000000000E+00
   0.000000000000000E+00   0.000000000000000E+00   0.000000000000000E+00
   0.000000000000000E+00   0.000000000000000E+00   0.000000000000000E+00
   0.000000000000000E+00   0.000000000000000E+00   0.000000000000000E+00
   0.000000000000000E+00   0.000000000000000E+00   0.000000000000000E+00
   0.000000000000000E+00   0.000000000000000E+00   0.000000000000000E+00
   0.000000000000000E+00   0.000000000000000E+00   0.000000000000000E+00
   0.000000000000000E+00   0.000000000000000E+00   0.000000000000000E+00
   0.000000000000000E+00   0.000000000000000E+00   0.000000000000000E+00
   0.000000000000000E+00   0.000000000000000E+00   0.000000000000000E+00
   0.000000000000000E+00   0.000000000000000E+00   0.000000000000000E+00
   0.000000000000000E+00   0.000000000000000E+00   0.000000000000000E+00
   0.000000000000000E+00   0.000000000000000E+00   0.000000000000000E+00
   0.000000000000000E+00   0.000000000000000E+00   0.000000000000000E+00
   0.000000000000000E+00   0.000000000000000E+00   0.000000000000000E+00
   0.000000000000000E+00   0.000000000000000E+00   0.000000000000000E+00
   0.000000000000000E+00   0.000000000000000E+00   0.000000000000000E+00
   0.000000000000000E+00   0.000000000000000E+00   0.000000000000000E+00
   0.000000000000000E+00   0.000000000000000E+00   0.000000000000000E+00
   0.000000000000000E+00   0.000000000000000E+00   0.000000000000000E+00
   0.000000000000000E+00   0.000000000000000E+00   0.000000000000000E+00
   0.000000000000000E+00   0.000000000000000E+00   0.000000000000000E+00
   0.000000000000000E+00   0.000000000000000E+00   0.000000000000000E+00
   0.000000000000000E+00   0.000000000000000E+00   0.000000000000000E+00
    </PP_BETA.1>
    <PP_BETA.2 index="2" label="2S" angular_momentum="0" cutoff_radius_index="759" cutoff_radius="1.0000000000000000" ultrasoft_cutoff_radius="1.3000000000000000">
  -2.932811443936520E-03  -2.969701655332349E-03  -3.007055887882540E-03
  -3.044879978232412E-03  -3.086339841013627E-03  -3.119547005184437E-03
  -3.155193348601731E-03  -3.203306791547053E-03  -3.229166499004732E-03
  -3.284240840473671E-03  -3.311753448389784E-03  -3.371058922446740E-03
  -3.404589757743950E-03  -3.448304083101969E-03  -3.495831854436554E-03
  -3.540828613837435E-03  -3.582590493288518E-03  -3.625579224542985E-03
  -3.672283805044863E-03  -3.721459320463555E-03  -3.770925545618392E-03
  -3.808082005248209E-03  -3.864665481814245E-03  -3.905850837600422E-03
  -3.960163535175254E-03  -4.010159150875131E-03  -4.059439173604046E-03
  -4.119181886592410E-03  -4.160901149051460E-03  -4.213097735537269E-03
  -4.266603925383555E-03  -4.310873680610838E-03  -4.379729669591020E-03
  -4.434578735637434E-03  -4.493132984288883E-03  -4.550786961058789E-03
  -4.588193467672086E-03  -4.661993934519548E-03  -4.718616382351187E-03
  -4.775833918493927E-03  -4.840059771833244E-03  -4.892412062398793E-03
  -4.952498851937825E-03  -5.021726329039300E-03  -5.081006658392562E-03
  -5.150104089192031E-03  -5.211787396793011E-03  -5.279128060438926E-03
  -5.340529879532402E-03  -5.411802472523680E-03  -5.477370850285573E-03
  -5.544291950205338E-03  -5.623339279671818E-03  -5.695140485587780E-03
  -5.754755556498597E-03  -5.838597076666840E-03  -5.901019563383403E-03
  -5.973015231843959E-03  -6.056267939334364E-03  -6.134916567343024E-03
  -6.212028184367113E-03  -6.284469697199285E-03  -6.362764781974894E-03
  -6.443847639171912E-03  -6.531309911731481E-03  -6.607133001804599E-03
  -6.689996403456966E-03  -6.775975835228848E-03  -6.856999964278326E-03
  -6.951990751668274E-03  -7.036644661123581E-03  -7.121767274844981E-03
  -7.214742923009276E-03  -7.304584221028365E-03  -7.396575701683672E-03
  -7.491395985307514E-03  -7.585365498686325E-03  -7.677289278940458E-03
  -7.777541363839291E-03  -7.876741021821509E-03  -7.972301610092880E-03
  -8.074680172449111E-03  -8.171443281879298E-03  -8.274090863558570E-03
  -8.381808584443318E-03  -8.487412638118641E-03  -8.595339203365415E-03
  -8.705926760550542E-03  -8.810693094922162E-03  -8.926112192245039E-03
  -9.033902374602221E-03  -9.147613698608614E-03  -9.263995129939362E-03
  -9.377194257365440E-03  -9.496943150459569E-03  -9.616278816330537E-03
  -9.735992651607295E-03  -9.861447301659443E-03  -9.984042276322103E-03
  -1.011013382814951E-02  -1.023390450085393E-02  -1.036474175968349E-02
  -1.049924791330642E-02  -1.062465570303339E-02  -1.076005206936181E-02
  -1.089892269606652E-02  -1.103264334457510E-02  -1.117441473649861E-02
  -1.131260586366639E-02  -1.145815427804603E-02  -1.159918328617393E-02
  -1.174738735328956E-02  -1.189266139337103E-02  -1.204211510200581E-02
  -1.219439151709761E-02  -1.234682387346042E-02  -1.249903783287010E-02
  -1.266356922554929E-02  -1.282065957289513E-02  -1.297938267436743E-02
  -1.314273310738551E-02  -1.330902739054746E-02  -1.347611199360682E-02
  -1.364554109108540E-02  -1.381525887097224E-02  -1.399609086562958E-02
  -1.416685044898824E-02  -1.434838956124440E-02  -1.452589420683476E-02
  -1.470922974463984E-02  -1.489179535576379E-02  -1.508166467526828E-02
  -1.527238090818195E-02  -1.546429183553277E-02  -1.565578782487853E-02
  -1.585632629008316E-02  -1.605529716968168E-02  -1.625650800996759E-02
  -1.645958051087748E-02  -1.666758326666695E-02  -1.687716947380546E-02
  -1.709113501636761E-02  -1.730365488880514E-02  -1.752308561994320E-02
  -1.774069219113728E-02  -1.796515582338809E-02  -1.819394482106740E-02
  -1.842129355945299E-02  -1.865170349436940E-02  -1.888535261741098E-02
  -1.912415744719353E-02  -1.936498242227791E-02  -1.960804579030406E-02
  -1.985643784248270E-02  -2.010397294730892E-02  -2.035716631444140E-02
  -2.061372424086572E-02  -2.087177989824496E-02  -2.113620608487865E-02
  -2.140150379310835E-02  -2.167034797527501E-02  -2.194259688034417E-02
  -2.221831863371015E-02  -2.249870937100718E-02  -2.278211063477809E-02
  -2.306903289296092E-02  -2.335885643331659E-02  -2.365135215369074E-02
  -2.395005283287033E-02  -2.425003026991690E-02  -2.455586449452851E-02
  -2.486650318784533E-02  -2.517675924817431E-02  -2.549538447340371E-02
  -2.581515524171263E-02  -2.613983108350371E-02  -2.646840672098238E-02
  -2.680139298458806E-02  -2.713980438447827E-02  -2.748060231437222E-02
  -2.782543027176909E-02  -2.817740646628430E-02  -2.852983104088380E-02
  -2.888807887560019E-02  -2.925251864247969E-02  -2.962052536046245E-02
  -2.999347130709351E-02  -3.036992867926624E-02  -3.075284069967310E-02
  -3.113824575722379E-02  -3.153065640502217E-02  -3.192750947885492E-02
  -3.232912702463642E-02  -3.273482903715608E-02  -3.314834383365217E-02
  -3.356320871290497E-02  -3.398610759700804E-02  -3.441312863653367E-02
  -3.484687353214944E-02  -3.528588250863396E-02  -3.572791780883700E-02
  -3.617732874457813E-02  -3.663429622524728E-02  -3.709286283339663E-02
  -3.756086180615781E-02  -3.803240758485349E-02  -3.851206230202764E-02
  -3.899544755780537E-02  -3.948679768577712E-02  -3.998330141471951E-02
  -4.048582579750226E-02  -4.099408055901299E-02  -4.151096938000420E-02
  -4.203273393053397E-02  -4.256153221288672E-02  -4.309747092413363E-02
  -4.363940162273550E-02  -4.418742826650712E-02  -4.474378448991678E-02
  -4.530679753545974E-02  -4.587666422710313E-02  -4.645258194693436E-02
  -4.703762783796384E-02  -4.762993132221105E-02  -4.822886691936423E-02
  -4.883422323729358E-02  -4.944951033158751E-02  -5.007043080419282E-02
  -5.070052720030205E-02  -5.133903450467581E-02  -5.198488802571744E-02
  -5.263814806088662E-02  -5.330024198231231E-02  -5.397137295255416E-02
  -5.464945796016618E-02  -5.533702225494141E-02  -5.603330280940733E-02
  -5.673784004692894E-02  -5.745185402491315E-02  -5.817370678067113E-02
  -5.890544535988784E-02  -5.964659317781029E-02  -6.039662690252445E-02
  -6.115689451646578E-02  -6.192547276038196E-02  -6.270491148165869E-02
  -6.349383073260650E-02  -6.429235609457518E-02  -6.510127519510389E-02
  -6.591919557643777E-02  -6.674913999874610E-02  -6.758809453491343E-02
  -6.843854160970286E-02  -6.929894949628457E-02  -7.017041637770216E-02
  -7.105309081620348E-02  -7.194670934224767E-02  -7.285146902229078E-02
  -7.376766020593717E-02  -7.469585949705548E-02  -7.563534376316827E-02
  -7.658619838651415E-02  -7.755020352378494E-02  -7.852550121281654E-02
  -7.951336298879275E-02  -8.051310420647662E-02  -8.152609225277629E-02
  -8.255084021727299E-02  -8.358967217742208E-02  -8.464088216793852E-02
  -8.570562941243631E-02  -8.678321048561966E-02  -8.787487249310288E-02
  -8.897983020756195E-02  -9.009878486352152E-02  -9.123220765101969E-02
  -9.237983584529008E-02  -9.354179284455677E-02  -9.471808853263930E-02
  -9.590957056057636E-02  -9.711558607192528E-02  -9.833693536698096E-02
  -9.957388959065261E-02  -1.008260566843138E-01  -1.020941298791231E-01
  -1.033780459999210E-01  -1.046781921781421E-01  -1.059946503147167E-01
  -1.073278467866676E-01  -1.086775049321633E-01  -1.100443663369584E-01
  -1.114284638514023E-01  -1.128299219969899E-01  -1.142487469468412E-01
  -1.156856535931636E-01  -1.171404224928283E-01  -1.186135737952894E-01
  -1.201055948567502E-01  -1.216158377391094E-01  -1.231454238461209E-01
  -1.246938799918791E-01  -1.262620712289468E-01  -1.278500673054213E-01
  -1.294577016875467E-01  -1.310857699001806E-01  -1.327342511302687E-01
  -1.344033190223382E-01  -1.360937494412804E-01  -1.378051091531702E-01
  -1.395379437406508E-01  -1.412928540824714E-01  -1.430695583442549E-01
  -1.448689619022110E-01  -1.466904029820926E-01  -1.485349434388761E-01
  -1.504027559643291E-01  -1.522941198408452E-01  -1.542090564150849E-01
  -1.561481433377594E-01  -1.581117362607491E-01  -1.600998738626798E-01
  -1.621130152906156E-01  -1.641514619875197E-01  -1.662154243419112E-01
  -1.683055618247433E-01  -1.704215994780700E-01  -1.725645449815634E-01
  -1.747342371256835E-01  -1.769313324122903E-01  -1.791561252489267E-01
  -1.814084642203646E-01  -1.836892388278057E-01  -1.859990356767005E-01
  -1.883372295485124E-01  -1.907052431750342E-01  -1.931028490697884E-01
  -1.955305525519311E-01  -1.979889564321100E-01  -2.004780002647202E-01
  -2.029983081872127E-01  -2.055503348902086E-01  -2.081344905847970E-01
  -2.107510934376213E-01  -2.134005233773122E-01  -2.160831694093837E-01
  -2.187994310235899E-01  -2.215499435667976E-01  -2.243349278441338E-01
  -2.271546275040368E-01  -2.300101017878289E-01  -2.329012843724607E-01
  -2.358287285421223E-01  -2.387928956345569E-01  -2.417945102272352E-01
  -2.448333251569323E-01  -2.479107279066532E-01  -2.510266490101678E-01
  -2.541812996800807E-01  -2.573761205585186E-01  -2.606103809692435E-01
  -2.638858554520276E-01  -2.672018566689474E-01  -2.705599651116462E-01
  -2.739598562065471E-01  -2.774023499360379E-01  -2.808882223194900E-01
  -2.844176429654706E-01  -2.879914271691391E-01  -2.916101631438828E-01
  -2.952739239836131E-01  -2.989836891371738E-01  -3.027403888156481E-01
  -3.065435683874860E-01  -3.103948140978723E-01  -3.142940301404860E-01
  -3.182424403780360E-01  -3.222401158712795E-01  -3.262879536373493E-01
  -3.303863019724460E-01  -3.345361866095509E-01  -3.387380463396852E-01
  -3.429924605656538E-01  -3.473000654699554E-01  -3.516617288396091E-01
  -3.560778738161705E-01  -3.605494442568862E-01  -3.650769418990905E-01
  -3.696608509265609E-01  -3.743025289534287E-01  -3.790019292782212E-01
  -3.837604404892847E-01  -3.885781617376036E-01  -3.934562125086032E-01
  -3.983953486888527E-01  -4.033961389525995E-01  -4.084595905571060E-01
  -4.135860121284747E-01  -4.187766978799381E-01  -4.240322260783014E-01
  -4.293533555397797E-01  -4.347409671654390E-01  -4.401959234122952E-01
  -4.457188625133277E-01  -4.513107319601595E-01  -4.569723945184059E-01
  -4.627047441633554E-01  -4.685085642571352E-01  -4.743848111932927E-01
  -4.803342598412570E-01  -4.863580159786061E-01  -4.924566486847510E-01
  -4.986313654960490E-01  -5.048830478142037E-01  -5.112124845731927E-01
  -5.176207414940066E-01  -5.241088592292655E-01  -5.306776694547963E-01
  -5.373282443033069E-01  -5.440614146165501E-01  -5.508784278780645E-01
  -5.577801399013396E-01  -5.647676145464473E-01  -5.718418578405284E-01
  -5.790040300974404E-01  -5.862551540471941E-01  -5.935961007097355E-01
  -6.010281830676156E-01  -6.085524852275555E-01  -6.161700196389717E-01
  -6.238820346154874E-01  -6.316895011107846E-01  -6.395936825272486E-01
  -6.475957493662570E-01  -6.556967567425929E-01  -6.638979634501574E-01
  -6.722006150472630E-01  -6.806058098331995E-01  -6.891147983574797E-01
  -6.977289621325262E-01  -7.064493256198432E-01  -7.152773157076737E-01
  -7.242139748237655E-01  -7.332608946272607E-01  -7.424191757469636E-01
  -7.516902356870752E-01  -7.610753361551588E-01  -7.705756915110804E-01
  -7.801928785523771E-01  -7.899282079842962E-01  -7.997828948588683E-01
  -8.097584673696936E-01  -8.198564078361770E-01  -8.300779319502567E-01
  -8.404245692681478E-01  -8.508978162327558E-01  -8.614990035619883E-01
  -8.722296963129317E-01  -8.830913116777772E-01  -8.940854663110933E-01
  -9.052135046992795E-01  -9.164769981504435E-01  -9.278775945794102E-01
  -9.394167092413568E-01  -9.510959811107114E-01  -9.629168966268153E-01
  -9.748810853837213E-01  -9.869901779356738E-01  -9.992457661803655E-01
  -1.011649417361575E+00  -1.024202839070163E+00  -1.036907685416814E+00
  -1.049765489239903E+00  -1.062778086544654E+00  -1.075947035824221E+00
  -1.089274102202225E+00  -1.102760967541997E+00  -1.116409306464448E+00
  -1.130220890502031E+00  -1.144197401285645E+00  -1.158340657997030E+00
  -1.172652422976178E+00  -1.187134306534979E+00  -1.201788248803418E+00
  -1.216615961139297E+00  -1.231619264838422E+00  -1.246799870531518E+00
  -1.262159716562820E+00  -1.277700495907993E+00  -1.293424148754696E+00
  -1.309332278564163E+00  -1.325426984816936E+00  -1.341709882545416E+00
  -1.358182897597928E+00  -1.374847922762925E+00  -1.391706690879168E+00
  -1.408761169487263E+00  -1.426013082332304E+00  -1.443464340807374E+00
  -1.461116772828333E+00  -1.478972233096762E+00  -1.497032565848400E+00
  -1.515299629059484E+00  -1.533775198055523E+00  -1.552461187562784E+00
  -1.571359308170571E+00  -1.590471544706396E+00  -1.609799546057033E+00
  -1.629345199292274E+00  -1.649110233889317E+00  -1.669096511012249E+00
  -1.689305740988750E+00  -1.709739633850027E+00  -1.730400020199319E+00
  -1.751288573604235E+00  -1.772406969536100E+00  -1.793756885970083E+00
  -1.815339977831805E+00  -1.837157861664195E+00  -1.859212167133364E+00
  -1.881504499196154E+00  -1.904036269748872E+00  -1.926809116079156E+00
  -1.949824478168225E+00  -1.973083730692593E+00  -1.996588357223729E+00
  -2.020339688579810E+00  -2.044338963669460E+00  -2.068587550693934E+00
  -2.093086627752555E+00  -2.117837316127520E+00  -2.142840784813828E+00
  -2.168097997935959E+00  -2.193610060466526E+00  -2.219377792432951E+00
  -2.245402056321822E+00  -2.271683710925970E+00  -2.298223394628494E+00
  -2.325021720266349E+00  -2.352079319545084E+00  -2.379396572574791E+00
  -2.406973889085592E+00  -2.434811501845402E+00  -2.462909656669950E+00
  -2.491268358562508E+00  -2.519887613270996E+00  -2.548767257841632E+00
  -2.577907037075704E+00  -2.607306535154180E+00  -2.636965264729454E+00
  -2.666882616773194E+00  -2.697057715834447E+00  -2.727489729738721E+00
  -2.758177523210250E+00  -2.789119892087413E+00  -2.820315448484067E+00
  -2.851762625769098E+00  -2.883459697885513E+00  -2.915404769806656E+00
  -2.947595709689594E+00  -2.980030308865693E+00  -3.012705995906813E+00
  -3.045620146035716E+00  -3.078769834457560E+00  -3.112151943186049E+00
  -3.145763133053435E+00  -3.179599811469757E+00  -3.213658160216625E+00
  -3.247934127658667E+00  -3.282423341840399E+00  -3.317121236532472E+00
  -3.352022965922586E+00  -3.387123345022260E+00  -3.422416969683795E+00
  -3.457898078916159E+00  -3.493560683332362E+00  -3.529398412381667E+00
  -3.565404557413189E+00  -3.601572214812947E+00  -3.637893974707509E+00
  -3.674362183836507E+00  -3.710968807851685E+00  -3.747705459327761E+00
  -3.784563392604696E+00  -3.821533431174203E+00  -3.858606112419608E+00
  -3.895771465379255E+00  -3.933019225528994E+00  -3.970338650552890E+00
  -4.007718608702959E+00  -4.045147588703884E+00  -4.082613600153849E+00
  -4.120104203839503E+00  -4.157606630449749E+00  -4.195107535078165E+00
  -4.232593262013808E+00  -4.270049598163723E+00  -4.307461927560212E+00
  -4.344815164173951E+00  -4.382093796555836E+00  -4.419281841443080E+00
  -4.456362819920031E+00  -4.493319830519084E+00  -4.530135543609873E+00
  -4.566792115894771E+00  -4.603271293440685E+00  -4.639554383874696E+00
  -4.675622214094602E+00  -4.711455218763888E+00  -4.747033397246412E+00
  -4.782336323605989E+00  -4.817343184947219E+00  -4.852032753550759E+00
  -4.886383453727120E+00  -4.920373323196173E+00  -4.953980096943326E+00
  -4.987181122991757E+00  -5.019953498428208E+00  -5.052274020975773E+00
  -5.084119227411492E+00  -5.115465417332558E+00  -5.146288699649801E+00
  -5.176565037445187E+00  -5.206270196862846E+00  -5.235379883376567E+00
  -5.263869705057971E+00  -5.291715271234608E+00  -5.318892164978166E+00
  -5.345376029755215E+00  -5.371142597349490E+00  -5.396167735554116E+00
  -5.420427507855976E+00  -5.443898195222573E+00  -5.466556332947277E+00
  -5.488378816296915E+00  -5.509342894776779E+00  -5.529426239797687E+00
  -5.548606990594578E+00  -5.566863812454613E+00  -5.584175924268436E+00
  -5.600523177085620E+00  -5.615886023920609E+00  -5.630245695272350E+00
  -5.643584048398338E+00  -5.655883775446597E+00  -5.667128330255707E+00
  -5.677301954601660E+00  -5.686389743893443E+00  -5.694377578875958E+00
  -5.701252176121585E+00  -5.707001063230166E+00  -5.711612503311443E+00
  -5.715075532778201E+00  -5.717379810305829E+00  -5.718515642383494E+00
  -5.718473785151758E+00  -5.717245408287852E+00  -5.714821924574409E+00
  -5.711194804158595E+00  -5.706355447967240E+00  -5.700294905522611E+00
  -5.693003650822192E+00  -5.684471284694041E+00  -5.674686219525057E+00
  -5.663635330774042E+00  -5.651303511774671E+00  -5.637673274228291E+00
  -5.622724207286097E+00  -5.606432476956485E+00  -5.588770185390644E+00
  -5.569704778558474E+00  -5.549198284578097E+00  -5.527206592519320E+00
  -5.503678602230622E+00  -5.478555390777700E+00  -5.451769226735252E+00
  -5.423242603782484E+00  -5.392887191988990E+00  -5.360602685895941E+00
  -5.326275687971957E+00  -5.289778463954519E+00  -5.250967674137655E+00
  -5.209683102435775E+00  -5.165746289378859E+00  -5.118959182264774E+00
  -5.069102764741217E+00  -5.015935681982199E+00  -4.959192889518022E+00
  -4.898584303937071E+00  -4.833793553649059E+00  -4.764476773130582E+00
  -4.690261487108671E+00  -4.610745677070952E+00  -4.525496924028516E+00
  -4.434051867353503E+00  -4.335915788926087E+00  -4.230562555259752E+00
  -4.117434889215914E+00  -3.995944988922687E+00  -3.865475661490777E+00
  -3.725381910124767E+00  -3.574993153802097E+00  -3.413616077009138E+00
  -3.240538252792277E+00  -3.055032556211813E+00  -2.856362540070634E+00
  -2.643788797727680E+00  -2.416576485228177E+00  -2.174004028964191E+00
  -1.915373234055394E+00  -1.640020805481100E+00  -1.347331490331314E+00
  -1.036752902901966E+00  -7.078121975556542E-01  -3.601347084657220E-01
   6.535337205662017E-03   3.923118816910431E-01   7.971417632957056E-01
   1.220776996344867E+00   1.662744482356125E+00   2.122313046561288E+00
   2.598457765201090E+00   3.089821413299575E+00   3.594673092084953E+00
   4.110863914345316E+00   4.635779800647061E+00   5.166291397185955E+00
   5.698701172836760E+00   6.228687825550342E+00   6.751248137143730E+00
   7.260636500087671E+00   7.750302406089698E+00   8.212826224595155E+00
   8.639853739907247E+00   9.022029944054212E+00   9.348932744623378E+00
   9.608971328856564E+00   9.789397149081708E+00   9.876564544448282E+00
   9.858942729417400E+00   9.717180941084001E+00   9.436167757986873E+00
   8.998932103153944E+00   8.387756069409694E+00   7.584229142346434E+00
   6.569362593257565E+00   5.323277481430682E+00   3.829210431454898E+00
   2.035761594581703E+00   2.250297829401494E-01  -2.291850541780948E-02
   1.543472079251202E-03  -9.970040092480040E-04  -8.550313735343281E-04
  -9.738715054245814E-04  -1.060975980916186E-03  -1.147277382198604E-03
  -1.228388800814373E-03  -1.305212172120180E-03  -1.377767547793279E-03
  -1.446163876175069E-03  -1.510503315828962E-03  -1.570887133718529E-03
  -1.627419504095686E-03  -1.680201904448959E-03  -1.729335595447079E-03
  -1.774923002158437E-03  -1.817061770927155E-03  -1.855851612059570E-03
  -1.891388046385337E-03  -1.923765722018081E-03  -1.953077785359046E-03
  -1.979413397607019E-03  -2.002861689142333E-03  -2.023507125986292E-03
  -2.041433522892694E-03  -2.056720867555756E-03  -2.069446580492424E-03
  -2.079686336297912E-03   0.000000000000000E+00   0.000000000000000E+00
   0.000000000000000E+00   0.000000000000000E+00   0.000000000000000E+00
   0.000000000000000E+00   0.000000000000000E+00   0.000000000000000E+00
   0.000000000000000E+00   0.000000000000000E+00   0.000000000000000E+00
   0.000000000000000E+00   0.000000000000000E+00   0.000000000000000E+00
   0.000000000000000E+00   0.000000000000000E+00   0.000000000000000E+00
   0.000000000000000E+00   0.000000000000000E+00   0.000000000000000E+00
   0.000000000000000E+00   0.000000000000000E+00   0.000000000000000E+00
   0.000000000000000E+00   0.000000000000000E+00   0.000000000000000E+00
   0.000000000000000E+00   0.000000000000000E+00   0.000000000000000E+00
   0.000000000000000E+00   0.000000000000000E+00   0.000000000000000E+00
   0.000000000000000E+00   0.000000000000000E+00   0.000000000000000E+00
   0.000000000000000E+00   0.000000000000000E+00   0.000000000000000E+00
   0.000000000000000E+00   0.000000000000000E+00   0.000000000000000E+00
   0.000000000000000E+00   0.000000000000000E+00   0.000000000000000E+00
   0.000000000000000E+00   0.000000000000000E+00   0.000000000000000E+00
   0.000000000000000E+00   0.000000000000000E+00   0.000000000000000E+00
   0.000000000000000E+00   0.000000000000000E+00   0.000000000000000E+00
   0.000000000000000E+00   0.000000000000000E+00   0.000000000000000E+00
   0.000000000000000E+00   0.000000000000000E+00   0.000000000000000E+00
   0.000000000000000E+00   0.000000000000000E+00   0.000000000000000E+00
   0.000000000000000E+00   0.000000000000000E+00   0.000000000000000E+00
   0.000000000000000E+00   0.000000000000000E+00   0.000000000000000E+00
   0.000000000000000E+00   0.000000000000000E+00   0.000000000000000E+00
   0.000000000000000E+00   0.000000000000000E+00   0.000000000000000E+00
   0.000000000000000E+00   0.000000000000000E+00   0.000000000000000E+00
   0.000000000000000E+00   0.000000000000000E+00   0.000000000000000E+00
   0.000000000000000E+00   0.000000000000000E+00   0.000000000000000E+00
   0.000000000000000E+00   0.000000000000000E+00   0.000000000000000E+00
   0.000000000000000E+00   0.000000000000000E+00   0.000000000000000E+00
   0.000000000000000E+00   0.000000000000000E+00   0.000000000000000E+00
   0.000000000000000E+00   0.000000000000000E+00   0.000000000000000E+00
   0.000000000000000E+00   0.000000000000000E+00   0.000000000000000E+00
   0.000000000000000E+00   0.000000000000000E+00   0.000000000000000E+00
   0.000000000000000E+00   0.000000000000000E+00   0.000000000000000E+00
   0.000000000000000E+00   0.000000000000000E+00   0.000000000000000E+00
   0.000000000000000E+00   0.000000000000000E+00   0.000000000000000E+00
   0.000000000000000E+00   0.000000000000000E+00   0.000000000000000E+00
   0.000000000000000E+00   0.000000000000000E+00   0.000000000000000E+00
   0.000000000000000E+00   0.000000000000000E+00   0.000000000000000E+00
   0.000000000000000E+00   0.000000000000000E+00   0.000000000000000E+00
   0.000000000000000E+00   0.000000000000000E+00   0.000000000000000E+00
   0.000000000000000E+00   0.000000000000000E+00   0.000000000000000E+00
   0.000000000000000E+00   0.000000000000000E+00   0.000000000000000E+00
   0.000000000000000E+00   0.000000000000000E+00   0.000000000000000E+00
   0.000000000000000E+00   0.000000000000000E+00   0.000000000000000E+00
   0.000000000000000E+00   0.000000000000000E+00   0.000000000000000E+00
   0.000000000000000E+00   0.000000000000000E+00   0.000000000000000E+00
   0.000000000000000E+00   0.000000000000000E+00   0.000000000000000E+00
   0.000000000000000E+00   0.000000000000000E+00   0.000000000000000E+00
   0.000000000000000E+00   0.000000000000000E+00   0.000000000000000E+00
   0.000000000000000E+00   0.000000000000000E+00   0.000000000000000E+00
   0.000000000000000E+00   0.000000000000000E+00   0.000000000000000E+00
   0.000000000000000E+00   0.000000000000000E+00   0.000000000000000E+00
   0.000000000000000E+00   0.000000000000000E+00   0.000000000000000E+00
   0.000000000000000E+00   0.000000000000000E+00   0.000000000000000E+00
   0.000000000000000E+00   0.000000000000000E+00   0.000000000000000E+00
   0.000000000000000E+00   0.000000000000000E+00   0.000000000000000E+00
   0.000000000000000E+00   0.000000000000000E+00   0.000000000000000E+00
   0.000000000000000E+00   0.000000000000000E+00   0.000000000000000E+00
   0.000000000000000E+00   0.000000000000000E+00   0.000000000000000E+00
   0.000000000000000E+00   0.000000000000000E+00   0.000000000000000E+00
   0.000000000000000E+00   0.000000000000000E+00   0.000000000000000E+00
   0.000000000000000E+00   0.000000000000000E+00   0.000000000000000E+00
   0.000000000000000E+00   0.000000000000000E+00   0.000000000000000E+00
   0.000000000000000E+00   0.000000000000000E+00   0.000000000000000E+00
   0.000000000000000E+00   0.000000000000000E+00   0.000000000000000E+00
   0.000000000000000E+00   0.000000000000000E+00   0.000000000000000E+00
   0.000000000000000E+00   0.000000000000000E+00   0.000000000000000E+00
   0.000000000000000E+00   0.000000000000000E+00   0.000000000000000E+00
   0.000000000000000E+00   0.000000000000000E+00   0.000000000000000E+00
   0.000000000000000E+00   0.000000000000000E+00   0.000000000000000E+00
   0.000000000000000E+00   0.000000000000000E+00   0.000000000000000E+00
   0.000000000000000E+00   0.000000000000000E+00   0.000000000000000E+00
   0.000000000000000E+00   0.000000000000000E+00   0.000000000000000E+00
   0.000000000000000E+00   0.000000000000000E+00   0.000000000000000E+00
   0.000000000000000E+00   0.000000000000000E+00   0.000000000000000E+00
   0.000000000000000E+00   0.000000000000000E+00   0.000000000000000E+00
   0.000000000000000E+00   0.000000000000000E+00   0.000000000000000E+00
   0.000000000000000E+00   0.000000000000000E+00   0.000000000000000E+00
   0.000000000000000E+00   0.000000000000000E+00   0.000000000000000E+00
   0.000000000000000E+00   0.000000000000000E+00   0.000000000000000E+00
   0.000000000000000E+00   0.000000000000000E+00   0.000000000000000E+00
   0.000000000000000E+00   0.000000000000000E+00   0.000000000000000E+00
   0.000000000000000E+00   0.000000000000000E+00   0.000000000000000E+00
   0.000000000000000E+00   0.000000000000000E+00   0.000000000000000E+00
   0.000000000000000E+00   0.000000000000000E+00   0.000000000000000E+00
   0.000000000000000E+00   0.000000000000000E+00   0.000000000000000E+00
   0.000000000000000E+00   0.000000000000000E+00   0.000000000000000E+00
   0.000000000000000E+00   0.000000000000000E+00   0.000000000000000E+00
   0.000000000000000E+00   0.000000000000000E+00   0.000000000000000E+00
   0.000000000000000E+00   0.000000000000000E+00   0.000000000000000E+00
   0.000000000000000E+00   0.000000000000000E+00   0.000000000000000E+00
   0.000000000000000E+00   0.000000000000000E+00   0.000000000000000E+00
   0.000000000000000E+00   0.000000000000000E+00   0.000000000000000E+00
   0.000000000000000E+00   0.000000000000000E+00   0.000000000000000E+00
   0.000000000000000E+00   0.000000000000000E+00   0.000000000000000E+00
   0.000000000000000E+00   0.000000000000000E+00   0.000000000000000E+00
   0.000000000000000E+00   0.000000000000000E+00   0.000000000000000E+00
   0.000000000000000E+00   0.000000000000000E+00   0.000000000000000E+00
   0.000000000000000E+00   0.000000000000000E+00   0.000000000000000E+00
   0.000000000000000E+00   0.000000000000000E+00   0.000000000000000E+00
   0.000000000000000E+00   0.000000000000000E+00   0.000000000000000E+00
   0.000000000000000E+00   0.000000000000000E+00   0.000000000000000E+00
   0.000000000000000E+00   0.000000000000000E+00   0.000000000000000E+00
   0.000000000000000E+00   0.000000000000000E+00   0.000000000000000E+00
    </PP_BETA.2>
    <PP_BETA.3 index="3" label="2P" angular_momentum="1" cutoff_radius_index="767" cutoff_radius="0.90000000000000002" ultrasoft_cutoff_radius="1.4500000000000000">
  -6.944994985485018E-06  -7.120808368477025E-06  -7.301072488341359E-06
  -7.485900016012740E-06  -7.675406474704044E-06  -7.869710312111859E-06
  -8.068932974450149E-06  -8.273198982358111E-06  -8.482636008729560E-06
  -8.697374958512720E-06  -8.917550050529873E-06  -9.143298901368626E-06
  -9.374762611396662E-06  -9.612085852953953E-06  -9.855416960777855E-06
  -1.010490802471690E-05  -1.036071498479197E-05  -1.062299772866383E-05
  -1.089192019156805E-05  -1.116765045877991E-05  -1.145036087067301E-05
  -1.174022813043764E-05  -1.203743341452589E-05  -1.234216248589293E-05
  -1.265460581010472E-05  -1.297495867438514E-05  -1.330342130967687E-05
  -1.364019901579213E-05  -1.398550228973162E-05  -1.433954695725213E-05
  -1.470255430776435E-05  -1.507475123264601E-05  -1.545637036705622E-05
  -1.584765023534006E-05  -1.624883540011384E-05  -1.666017661512464E-05
  -1.708193098197944E-05  -1.751436211084194E-05  -1.795774028519736E-05
  -1.841234263078828E-05  -1.887845328882716E-05  -1.935636359359364E-05
  -1.984637225452792E-05  -2.034878554293363E-05  -2.086391748340737E-05
  -2.139209005011401E-05  -2.193363336803080E-05  -2.248888591928626E-05
  -2.305819475472214E-05  -2.364191571081154E-05  -2.424041363206775E-05
  -2.485406259908400E-05  -2.548324616234576E-05  -2.612835758196178E-05
  -2.678980007346469E-05  -2.746798705983304E-05  -2.816334242989432E-05
  -2.887630080326854E-05  -2.960730780201965E-05  -3.035682032918356E-05
  -3.112530685434671E-05  -3.191324770645485E-05  -3.272113537403361E-05
  -3.354947481300962E-05  -3.439878376232413E-05  -3.526959306753583E-05
  -3.616244701261660E-05  -3.707790366014600E-05  -3.801653520011796E-05
  -3.897892830757817E-05  -3.996568450931367E-05  -4.097742055982672E-05
  -4.201476882682560E-05  -4.307837768647454E-05  -4.416891192864902E-05
  -4.528705317245049E-05  -4.643350029223981E-05  -4.760896985445533E-05
  -4.881419656549009E-05  -5.004993373090567E-05  -5.131695372627223E-05
  -5.261604847992717E-05  -5.394802996795521E-05  -5.531373072169873E-05
  -5.671400434811610E-05  -5.814972606331241E-05  -5.962179323957666E-05
  -6.113112596626755E-05  -6.267866762489800E-05  -6.426538547877784E-05
  -6.589227127758309E-05  -6.756034187723056E-05  -6.927063987544388E-05
  -7.102423426340928E-05  -7.282222109392897E-05  -7.466572416648640E-05
  -7.655589572965632E-05  -7.849391720129550E-05  -8.048099990696481E-05
  -8.251838583704538E-05  -8.460734842301976E-05  -8.674919333340566E-05
  -8.894525928983884E-05  -9.119691890381408E-05  -9.350557953461070E-05
  -9.587268416893233E-05  -9.829971232281915E-05  -1.007881809663890E-04
  -1.033396454719899E-04  -1.059557005863544E-04  -1.086379814273638E-04
  -1.113881645060461E-04  -1.142079687744450E-04  -1.170991567000167E-04
  -1.200635353672244E-04  -1.231029576070188E-04  -1.262193231549131E-04
  -1.294145798383731E-04  -1.326907247942672E-04  -1.360498057171360E-04
  -1.394939221390590E-04  -1.430252267419266E-04  -1.466459267029260E-04
  -1.503582850740927E-04  -1.541646221967830E-04  -1.580673171519540E-04
  -1.620688092471575E-04  -1.661715995411773E-04  -1.703782524072620E-04
  -1.746913971359312E-04  -1.791137295783569E-04  -1.836480138313459E-04
  -1.882970839649784E-04  -1.930638457939804E-04  -1.979512786939411E-04
  -2.029624374635014E-04  -2.070571744234842E-04  -2.123007294825058E-04
  -2.177296999617565E-04  -2.232596049525565E-04  -2.289251873916704E-04
  -2.357337116903768E-04  -2.416931650889697E-04  -2.478155196941750E-04
  -2.540969928935698E-04  -2.605256914482812E-04  -2.671357800259216E-04
  -2.738905359819556E-04  -2.808255790711413E-04  -2.879371134992825E-04
  -2.952358254086922E-04  -3.026982230410317E-04  -3.103756568730138E-04
  -3.182312311746174E-04  -3.262795949872713E-04  -3.345598232665698E-04
  -3.430106811422972E-04  -3.517092795459113E-04  -3.606268701442535E-04
  -3.697482279229425E-04  -3.790956509596513E-04  -3.887060485770705E-04
  -3.985456331758381E-04  -4.086392896577634E-04  -4.189793232886373E-04
  -4.295836222700379E-04  -4.404758077065606E-04  -4.516160968239078E-04
  -4.630663349164043E-04  -4.747677211368495E-04  -4.868114007646803E-04
  -4.991247453672593E-04  -5.117790487459920E-04  -5.247260429270925E-04
  -5.380033873179538E-04  -5.516388433119742E-04  -5.655915227330147E-04
  -5.799211418499248E-04  -5.945966295911598E-04  -6.096570834831388E-04
  -6.250847768733848E-04  -6.409045537619121E-04  -6.571394447124367E-04
  -6.737732379283510E-04  -6.908470700538478E-04  -7.083327728154066E-04
  -7.262588018731833E-04  -7.446473274417670E-04  -7.635006332219929E-04
  -7.828377079630616E-04  -8.026509107134767E-04  -8.229743911058619E-04
  -8.437989748124623E-04  -8.651874523039962E-04  -8.870679862912055E-04
  -9.095441905793361E-04  -9.325581467772197E-04  -9.561551011580804E-04
  -9.803886373809636E-04  -1.005196476757830E-03  -1.030641348009760E-03
  -1.056735528934261E-03  -1.083486042497772E-03  -1.110925701852317E-03
  -1.139047533154362E-03  -1.167891667891938E-03  -1.197458932919812E-03
  -1.227764262189189E-03  -1.258855990414337E-03  -1.290717644567022E-03
  -1.323401836795717E-03  -1.356903121842196E-03  -1.391259531425594E-03
  -1.426465239789395E-03  -1.462579284962452E-03  -1.499601729382850E-03
  -1.537575855535872E-03  -1.576505168468768E-03  -1.616411593742833E-03
  -1.657327161408825E-03  -1.699291292061576E-03  -1.742316716463343E-03
  -1.786417742998038E-03  -1.831652715001145E-03  -1.878002219191122E-03
  -1.925568626804874E-03  -1.974298805297847E-03  -2.024291198484898E-03
  -2.075520397382029E-03  -2.128071996283050E-03  -2.181950923048929E-03
  -2.237187830232537E-03  -2.293809854584310E-03  -2.351900518078008E-03
  -2.411434337603590E-03  -2.472475586342730E-03  -2.535077545622723E-03
  -2.599247257428222E-03  -2.665058228081999E-03  -2.732493013251772E-03
  -2.801706104033007E-03  -2.872621726176390E-03  -2.945335850128527E-03
  -3.019896611873569E-03  -3.096352087024490E-03  -3.174731320398335E-03
  -3.255100248507144E-03  -3.337509366083994E-03  -3.421988209664346E-03
  -3.508624223558882E-03  -3.597454510052656E-03  -3.688525664424571E-03
  -3.781897560116286E-03  -3.877631802046234E-03  -3.975795004715999E-03
  -4.076436340896428E-03  -4.179625717097971E-03  -4.285440787746782E-03
  -4.393916400720111E-03  -4.505169423154268E-03  -4.619202652085399E-03
  -4.736146609893330E-03  -4.856027601960605E-03  -4.978976302050027E-03
  -5.105006086064009E-03  -5.234245834155615E-03  -5.366740778425434E-03
  -5.502586459006909E-03  -5.641900614669609E-03  -5.784710187061906E-03
  -5.931159588037829E-03  -6.081305398096547E-03  -6.235237409441183E-03
  -6.393099620545201E-03  -6.554918599195964E-03  -6.720858104104652E-03
  -6.890998132322562E-03  -7.065447779345601E-03  -7.244297180043456E-03
  -7.427680158837501E-03  -7.615700143374572E-03  -7.808496494839841E-03
  -8.006157068275267E-03  -8.208819686559087E-03  -8.416622761782074E-03
  -8.629703806109161E-03  -8.848136452486187E-03  -9.072122552629514E-03
  -9.301781559401562E-03  -9.537237455424771E-03  -9.778669849022134E-03
  -1.002619942814380E-02  -1.028001413942559E-02  -1.054023029061451E-02
  -1.080702985014790E-02  -1.108060631269792E-02  -1.136109988616622E-02
  -1.164869082156795E-02  -1.194355532720485E-02  -1.224589875770384E-02
  -1.255588045277482E-02  -1.287371658044443E-02  -1.319957918736101E-02
  -1.353371437875179E-02  -1.387629965335321E-02  -1.422754116480722E-02
  -1.458770752371274E-02  -1.495694057369516E-02  -1.533556529934388E-02
  -1.572374944358736E-02  -1.612175903145471E-02  -1.652985544732373E-02
  -1.694828152633591E-02  -1.737727903022961E-02  -1.781713122521729E-02
  -1.826814357989502E-02  -1.873054461549324E-02  -1.920468381010336E-02
  -1.969077752417979E-02  -2.018921995372774E-02  -2.070025483227510E-02
  -2.122420191896024E-02  -2.176144932455631E-02  -2.231226206092941E-02
  -2.287704038236384E-02  -2.345609015033709E-02  -2.404980652425989E-02
  -2.465855512229852E-02  -2.528270870452687E-02  -2.592263935227780E-02
  -2.657878220253511E-02  -2.725152019893926E-02  -2.794129485252338E-02
  -2.864851163794570E-02  -2.937364755663234E-02  -3.011712203394612E-02
  -3.087940485430427E-02  -3.166098238028600E-02  -3.246234640339482E-02
  -3.328397356923365E-02  -3.412640106550932E-02  -3.499014333927261E-02
  -3.587574736059090E-02  -3.678376043904183E-02  -3.771475648585670E-02
  -3.866930063608534E-02  -3.964800287388834E-02  -4.065146650423571E-02
  -4.168032924768678E-02  -4.273520422465404E-02  -4.381679745952408E-02
  -4.492573831450292E-02  -4.606275252425543E-02  -4.722853661328580E-02
  -4.842380735730717E-02  -4.964931211785445E-02  -5.090584010832361E-02
  -5.219414795714025E-02  -5.351503366227298E-02  -5.486937916657647E-02
  -5.625795153746688E-02  -5.768168541332713E-02  -5.914140104874854E-02
  -6.063808045034286E-02  -6.217256399796500E-02  -6.374610922844132E-02
  -6.535899461810302E-02  -6.701277400590794E-02  -6.870908077435800E-02
  -7.044749153148527E-02  -7.222998324080177E-02  -7.405756191357299E-02
  -7.593282750942559E-02  -7.785281018583101E-02  -7.982313419578851E-02
  -8.184308616909813E-02  -8.391413747450049E-02  -8.603701856679602E-02
  -8.821431599300478E-02  -9.044600141518222E-02  -9.273523656259730E-02
  -9.508066854861358E-02  -9.748606762432116E-02  -9.995397119104704E-02
  -1.024818882001028E-01  -1.050743294148108E-01  -1.077337564492071E-01
  -1.104584536696052E-01  -1.132536136659205E-01  -1.161179788423827E-01
  -1.190562417780137E-01  -1.220679713205802E-01  -1.251557609849265E-01
  -1.283214551948847E-01  -1.315683667930491E-01  -1.348960079313083E-01
  -1.383084801334222E-01  -1.418061859016537E-01  -1.453939107192739E-01
  -1.490719449862874E-01  -1.528412159046407E-01  -1.567080070969136E-01
  -1.606704592489063E-01  -1.647352181966806E-01  -1.689007330599214E-01
  -1.731724256910608E-01  -1.775523644313741E-01  -1.820420353222474E-01
  -1.866460032757762E-01  -1.913652673978338E-01  -1.962046991325984E-01
  -2.011663986696214E-01  -2.062521895538044E-01  -2.114678382302387E-01
  -2.168150300037029E-01  -2.222954410555613E-01  -2.279168567312138E-01
  -2.336790422801920E-01  -2.395855920167180E-01  -2.456438172753479E-01
  -2.518509215119447E-01  -2.582205354804439E-01  -2.647458152303634E-01
  -2.714377431182466E-01  -2.782983444635503E-01  -2.853326575250963E-01
  -2.925436746726007E-01  -2.999372501511062E-01  -3.075161638719215E-01
  -3.152874597758022E-01  -3.232546306973463E-01  -3.314227754214694E-01
  -3.397961593103527E-01  -3.483815146386815E-01  -3.571832089793154E-01
  -3.662062675247268E-01  -3.754566041733609E-01  -3.849419325719607E-01
  -3.946640105200565E-01  -4.046331710990132E-01  -4.148515837261888E-01
  -4.253287263772936E-01  -4.360681721245310E-01  -4.470818058471233E-01
  -4.583692569820439E-01  -4.699412726691259E-01  -4.818060391253745E-01
  -4.939690399846954E-01  -5.064383293404808E-01  -5.192209718920062E-01
  -5.323251524903334E-01  -5.457602379210917E-01  -5.595316668892725E-01
  -5.736507628009733E-01  -5.881242610652682E-01  -6.029617922762505E-01
  -6.181724209474444E-01  -6.337654606908214E-01  -6.497502149273671E-01
  -6.661364629647664E-01  -6.829350886617664E-01  -7.001540073853518E-01
  -7.178075480733130E-01  -7.359026632140830E-01  -7.544522202545800E-01
  -7.734678905187922E-01  -7.929597968153055E-01  -8.129418148904914E-01
  -8.334230443483381E-01  -8.544204718505437E-01  -8.759410151962363E-01
  -8.980039920123390E-01  -9.206173938392546E-01  -9.437984125356964E-01
  -9.675593034984784E-01  -9.919152801977775E-01  -1.016880276977609E+00
  -1.042470511340715E+00  -1.068700639979237E+00  -1.095586146362855E+00
  -1.123143760423283E+00  -1.151390242616730E+00  -1.180341893743584E+00
  -1.210016685331317E+00  -1.240432086402361E+00  -1.271606538573384E+00
  -1.303558039396816E+00  -1.336306626128905E+00  -1.369871744652222E+00
  -1.404271922869869E+00  -1.439529584476007E+00  -1.475665090544489E+00
  -1.512698722956365E+00  -1.550654262378194E+00  -1.589553175941802E+00
  -1.629417545406067E+00  -1.670273783302099E+00  -1.712142672149680E+00
  -1.755050783939097E+00  -1.799023039038010E+00  -1.844085104679484E+00
  -1.890262754343913E+00  -1.937584341249789E+00  -1.986076329718120E+00
  -2.035767561825834E+00  -2.086686366282697E+00  -2.138863387087014E+00
  -2.192327202479742E+00  -2.247110452977934E+00  -2.303243463943158E+00
  -2.360759507079386E+00  -2.419690651148922E+00  -2.480071537501230E+00
  -2.541935967120558E+00  -2.605320212056524E+00  -2.670258880500608E+00
  -2.736790374261345E+00  -2.804951310836445E+00  -2.874780613301500E+00
  -2.946317446791612E+00  -3.019602125144141E+00  -3.094675386679040E+00
  -3.171579587366853E+00  -3.250357143438054E+00  -3.331051678802593E+00
  -3.413708272292450E+00  -3.498372040890942E+00  -3.585089549814150E+00
  -3.673908503483474E+00  -3.764876771732602E+00  -3.858044420532563E+00
  -3.953461320573181E+00  -4.051179177624928E+00  -4.151250160210584E+00
  -4.253728101760910E+00  -4.358666921486581E+00  -4.466122844472316E+00
  -4.576152063671280E+00  -4.688812152881006E+00  -4.804162666832749E+00
  -4.922262301168161E+00  -5.043173103585836E+00  -5.166956632393330E+00
  -5.293676046990033E+00  -5.423395911495184E+00  -5.556181558827689E+00
  -5.692099619071911E+00  -5.831217667432625E+00  -5.973604659414754E+00
  -6.119330554412890E+00  -6.268466485927483E+00  -6.421084470683240E+00
  -6.577258252028042E+00  -6.737061888615749E+00  -6.900571252625369E+00
  -7.067862820063961E+00  -7.239014522086055E+00  -7.414105104006982E+00
  -7.593214294534800E+00  -7.776423377566346E+00  -7.963813839200739E+00
  -8.155469099833255E+00  -8.351472432740618E+00  -8.551909270243428E+00
  -8.756864776070493E+00  -8.966425785151380E+00  -9.180679570995430E+00
  -9.399714266232493E+00  -9.623618759663799E+00  -9.852482419586622E+00
  -1.008639541358640E+01  -1.032544834246653E+01  -1.056973238411087E+01
  -1.081933891446614E+01  -1.107435970860074E+01  -1.133488676024420E+01
  -1.160101228325509E+01  -1.187282830419074E+01  -1.215042688172203E+01
  -1.243389994347004E+01  -1.272333876607979E+01  -1.301883467940770E+01
  -1.332047785046137E+01  -1.362835801926855E+01  -1.394256404980895E+01
  -1.426318328106930E+01  -1.459030240151951E+01  -1.492400603213675E+01
  -1.526437750741535E+01  -1.561149807747285E+01  -1.596544688503528E+01
  -1.632630073898222E+01  -1.669413377789087E+01  -1.706901720448140E+01
  -1.745101905673643E+01  -1.784020382470428E+01  -1.823663219030315E+01
  -1.864036066215012E+01  -1.905144118175443E+01  -1.946992079833201E+01
  -1.989584123731386E+01  -2.032923850968277E+01  -2.077014243584925E+01
  -2.121857621137271E+01  -2.167455588284015E+01  -2.213808994548270E+01
  -2.260917862996098E+01  -2.308781352408124E+01  -2.357397685559722E+01
  -2.406764096513540E+01  -2.456876763016808E+01  -2.507730738306593E+01
  -2.559319881020767E+01  -2.611636790856612E+01  -2.664672720014021E+01
  -2.718417499255457E+01  -2.772859460611086E+01  -2.827985345121576E+01
  -2.883780212548589E+01  -2.940227359501009E+01  -2.997308204232982E+01
  -3.055002216373472E+01  -3.113286776262767E+01  -3.172137107773088E+01
  -3.231526131281736E+01  -3.291424386924531E+01  -3.351799882151245E+01
  -3.412617993905305E+01  -3.473841341883148E+01  -3.535429649276013E+01
  -3.597339628445734E+01  -3.659524827732925E+01  -3.721935524230643E+01
  -3.784518542764246E+01  -3.847217154747081E+01  -3.909970914863747E+01
  -3.972715501144260E+01  -4.035382601115263E+01  -4.097899734828400E+01
  -4.160190111313625E+01  -4.222172485625389E+01  -4.283760998383467E+01
  -4.344865038742000E+01  -4.405389084559158E+01  -4.465232560916314E+01
  -4.524289707084947E+01  -4.582449422348907E+01  -4.639595143136163E+01
  -4.695604719750176E+01  -4.750350285295956E+01  -4.803698153366528E+01
  -4.855508719471566E+01  -4.905636366637874E+01  -4.953929392279457E+01
  -5.000229955818332E+01  -5.044374025358739E+01  -5.086191358278356E+01
  -5.125505516690447E+01  -5.162133861291824E+01  -5.195887630540479E+01
  -5.226572003911213E+01  -5.253986223055499E+01  -5.277923733102818E+01
  -5.298172383184185E+01  -5.314514645414088E+01  -5.326727894986884E+01
  -5.334584744197008E+01  -5.337853419317941E+01  -5.336298200129819E+01
  -5.329679927132324E+01  -5.317756568547877E+01  -5.300283869566813E+01
  -5.277016070330990E+01  -5.247706701217497E+01  -5.212109485693314E+01
  -5.169979309553108E+01  -5.121073299040401E+01  -5.065152015847923E+01
  -5.001980715941517E+01  -4.931330766862882E+01  -4.852981155674445E+01
  -4.766720112545141E+01  -4.672346875084398E+01  -4.569673561362228E+01
  -4.458527183641539E+01  -4.338751785296785E+01  -4.210210719058080E+01
  -4.072789038949367E+01  -3.926396039290984E+01  -3.770967922664914E+01
  -3.606470569451784E+01  -3.432902452737977E+01  -3.250297640667259E+01
  -3.058728921958698E+01  -2.858310982202647E+01  -2.649203707985919E+01
  -2.431615484061251E+01  -2.205806576136280E+01  -1.972092483632412E+01
  -1.730847304125257E+01  -1.482507023648247E+01  -1.227572726691119E+01
  -9.666136716405390E+00  -7.002702000836280E+00  -4.292563952393039E+00
  -1.543624821722346E+00   1.235431554956108E+00   4.035123442904933E+00
   6.845160132757542E+00   9.654436425971994E+00   1.245103387459380E+01
   1.522222959065004E+01   1.795451362809638E+01   2.063361608310947E+01
   2.324454495564294E+01   2.577163597827973E+01   2.819861577635720E+01
   3.050867935689075E+01   3.268458357929433E+01   3.470875771906162E+01
   3.656343251135183E+01   3.823078922665650E+01   3.969312983627526E+01
   4.093306986961579E+01   4.193375506713676E+01   4.267910314580070E+01
   4.315407166194484E+01   4.334495310211639E+01   4.323969802030729E+01
   4.282826678876097E+01   4.210301047317574E+01   4.105908108980395E+01
   3.969487093470161E+01   3.801248075015837E+01   3.601821572116239E+01
   3.372320939445603E+01   3.114375957789440E+01   2.830099112829544E+01
   2.521280426736161E+01   2.192229925546548E+01   1.846431095199949E+01
   1.488309232708184E+01   1.122972016343058E+01   7.562490221541509E+00
   3.947289909833586E+00   4.579395630706244E-01  -2.823506909726490E+00
  -5.806512529569083E+00  -8.391870397343858E+00  -1.047159187227689E+01
  -1.192888512001573E+01  -1.263822452023150E+01  -1.246566312040694E+01
  -1.126808283513502E+01  -8.904240803963052E+00  -5.132882868671537E+00
  -6.098749015989235E-01   6.124508715271429E-02  -5.211707360965948E-03
   1.450970943565563E-03   8.600043998319585E-04   9.840173605857620E-04
   1.033088566590032E-03   1.085650013592933E-03   1.134038578772338E-03
   1.179138466463762E-03   1.220973068689327E-03   1.259659304454853E-03
   1.295298006379123E-03   1.327995072226508E-03   1.357852583186625E-03
   1.384969323654331E-03   1.409447845695577E-03   1.431381665375710E-03
   1.450870509773910E-03   1.468003123516197E-03   1.482874997641430E-03
   1.495574549649020E-03   1.506186521562440E-03   1.514799499795254E-03
   1.521494742080402E-03   1.526351140851402E-03   1.529449424233163E-03
   1.530863951110144E-03   1.530670737863336E-03   1.528940275696627E-03
   0.000000000000000E+00   0.000000000000000E+00   0.000000000000000E+00
   0.000000000000000E+00   0.000000000000000E+00   0.000000000000000E+00
   0.000000000000000E+00   0.000000000000000E+00   0.000000000000000E+00
   0.000000000000000E+00   0.000000000000000E+00   0.000000000000000E+00
   0.000000000000000E+00   0.000000000000000E+00   0.000000000000000E+00
   0.000000000000000E+00   0.000000000000000E+00   0.000000000000000E+00
   0.000000000000000E+00   0.000000000000000E+00   0.000000000000000E+00
   0.000000000000000E+00   0.000000000000000E+00   0.000000000000000E+00
   0.000000000000000E+00   0.000000000000000E+00   0.000000000000000E+00
   0.000000000000000E+00   0.000000000000000E+00   0.000000000000000E+00
   0.000000000000000E+00   0.000000000000000E+00   0.000000000000000E+00
   0.000000000000000E+00   0.000000000000000E+00   0.000000000000000E+00
   0.000000000000000E+00   0.000000000000000E+00   0.000000000000000E+00
   0.000000000000000E+00   0.000000000000000E+00   0.000000000000000E+00
   0.000000000000000E+00   0.000000000000000E+00   0.000000000000000E+00
   0.000000000000000E+00   0.000000000000000E+00   0.000000000000000E+00
   0.000000000000000E+00   0.000000000000000E+00   0.000000000000000E+00
   0.000000000000000E+00   0.000000000000000E+00   0.000000000000000E+00
   0.000000000000000E+00   0.000000000000000E+00   0.000000000000000E+00
   0.000000000000000E+00   0.000000000000000E+00   0.000000000000000E+00
   0.000000000000000E+00   0.000000000000000E+00   0.000000000000000E+00
   0.000000000000000E+00   0.000000000000000E+00   0.000000000000000E+00
   0.000000000000000E+00   0.000000000000000E+00   0.000000000000000E+00
   0.000000000000000E+00   0.000000000000000E+00   0.000000000000000E+00
   0.000000000000000E+00   0.000000000000000E+00   0.000000000000000E+00
   0.000000000000000E+00   0.000000000000000E+00   0.000000000000000E+00
   0.000000000000000E+00   0.000000000000000E+00   0.000000000000000E+00
   0.000000000000000E+00   0.000000000000000E+00   0.000000000000000E+00
   0.000000000000000E+00   0.000000000000000E+00   0.000000000000000E+00
   0.000000000000000E+00   0.000000000000000E+00   0.000000000000000E+00
   0.000000000000000E+00   0.000000000000000E+00   0.000000000000000E+00
   0.000000000000000E+00   0.000000000000000E+00   0.000000000000000E+00
   0.000000000000000E+00   0.000000000000000E+00   0.000000000000000E+00
   0.000000000000000E+00   0.000000000000000E+00   0.000000000000000E+00
   0.000000000000000E+00   0.000000000000000E+00   0.000000000000000E+00
   0.000000000000000E+00   0.000000000000000E+00   0.000000000000000E+00
   0.000000000000000E+00   0.000000000000000E+00   0.000000000000000E+00
   0.000000000000000E+00   0.000000000000000E+00   0.000000000000000E+00
   0.000000000000000E+00   0.000000000000000E+00   0.000000000000000E+00
   0.000000000000000E+00   0.000000000000000E+00   0.000000000000000E+00
   0.000000000000000E+00   0.000000000000000E+00   0.000000000000000E+00
   0.000000000000000E+00   0.000000000000000E+00   0.000000000000000E+00
   0.000000000000000E+00   0.000000000000000E+00   0.000000000000000E+00
   0.000000000000000E+00   0.000000000000000E+00   0.000000000000000E+00
   0.000000000000000E+00   0.000000000000000E+00   0.000000000000000E+00
   0.000000000000000E+00   0.000000000000000E+00   0.000000000000000E+00
   0.000000000000000E+00   0.000000000000000E+00   0.000000000000000E+00
   0.000000000000000E+00   0.000000000000000E+00   0.000000000000000E+00
   0.000000000000000E+00   0.000000000000000E+00   0.000000000000000E+00
   0.000000000000000E+00   0.000000000000000E+00   0.000000000000000E+00
   0.000000000000000E+00   0.000000000000000E+00   0.000000000000000E+00
   0.000000000000000E+00   0.000000000000000E+00   0.000000000000000E+00
   0.000000000000000E+00   0.000000000000000E+00   0.000000000000000E+00
   0.000000000000000E+00   0.000000000000000E+00   0.000000000000000E+00
   0.000000000000000E+00   0.000000000000000E+00   0.000000000000000E+00
   0.000000000000000E+00   0.000000000000000E+00   0.000000000000000E+00
   0.000000000000000E+00   0.000000000000000E+00   0.000000000000000E+00
   0.000000000000000E+00   0.000000000000000E+00   0.000000000000000E+00
   0.000000000000000E+00   0.000000000000000E+00   0.000000000000000E+00
   0.000000000000000E+00   0.000000000000000E+00   0.000000000000000E+00
   0.000000000000000E+00   0.000000000000000E+00   0.000000000000000E+00
   0.000000000000000E+00   0.000000000000000E+00   0.000000000000000E+00
   0.000000000000000E+00   0.000000000000000E+00   0.000000000000000E+00
   0.000000000000000E+00   0.000000000000000E+00   0.000000000000000E+00
   0.000000000000000E+00   0.000000000000000E+00   0.000000000000000E+00
   0.000000000000000E+00   0.000000000000000E+00   0.000000000000000E+00
   0.000000000000000E+00   0.000000000000000E+00   0.000000000000000E+00
   0.000000000000000E+00   0.000000000000000E+00   0.000000000000000E+00
   0.000000000000000E+00   0.000000000000000E+00   0.000000000000000E+00
   0.000000000000000E+00   0.000000000000000E+00   0.000000000000000E+00
   0.000000000000000E+00   0.000000000000000E+00   0.000000000000000E+00
   0.000000000000000E+00   0.000000000000000E+00   0.000000000000000E+00
   0.000000000000000E+00   0.000000000000000E+00   0.000000000000000E+00
   0.000000000000000E+00   0.000000000000000E+00   0.000000000000000E+00
   0.000000000000000E+00   0.000000000000000E+00   0.000000000000000E+00
   0.000000000000000E+00   0.000000000000000E+00   0.000000000000000E+00
   0.000000000000000E+00   0.000000000000000E+00   0.000000000000000E+00
   0.000000000000000E+00   0.000000000000000E+00   0.000000000000000E+00
   0.000000000000000E+00   0.000000000000000E+00   0.000000000000000E+00
   0.000000000000000E+00   0.000000000000000E+00   0.000000000000000E+00
   0.000000000000000E+00   0.000000000000000E+00   0.000000000000000E+00
   0.000000000000000E+00   0.000000000000000E+00   0.000000000000000E+00
   0.000000000000000E+00   0.000000000000000E+00   0.000000000000000E+00
   0.000000000000000E+00   0.000000000000000E+00   0.000000000000000E+00
   0.000000000000000E+00   0.000000000000000E+00   0.000000000000000E+00
   0.000000000000000E+00   0.000000000000000E+00   0.000000000000000E+00
   0.000000000000000E+00   0.000000000000000E+00   0.000000000000000E+00
   0.000000000000000E+00   0.000000000000000E+00   0.000000000000000E+00
   0.000000000000000E+00   0.000000000000000E+00   0.000000000000000E+00
   0.000000000000000E+00   0.000000000000000E+00   0.000000000000000E+00
   0.000000000000000E+00   0.000000000000000E+00   0.000000000000000E+00
   0.000000000000000E+00   0.000000000000000E+00   0.000000000000000E+00
   0.000000000000000E+00   0.000000000000000E+00   0.000000000000000E+00
   0.000000000000000E+00   0.000000000000000E+00   0.000000000000000E+00
   0.000000000000000E+00   0.000000000000000E+00   0.000000000000000E+00
   0.000000000000000E+00   0.000000000000000E+00   0.000000000000000E+00
   0.000000000000000E+00   0.000000000000000E+00   0.000000000000000E+00
   0.000000000000000E+00   0.000000000000000E+00   0.000000000000000E+00
   0.000000000000000E+00   0.000000000000000E+00   0.000000000000000E+00
   0.000000000000000E+00   0.000000000000000E+00   0.000000000000000E+00
   0.000000000000000E+00   0.000000000000000E+00   0.000000000000000E+00
   0.000000000000000E+00   0.000000000000000E+00   0.000000000000000E+00
   0.000000000000000E+00   0.000000000000000E+00   0.000000000000000E+00
    </PP_BETA.3>
    <PP_BETA.4 index="4" label="2P" angular_momentum="1" cutoff_radius_index="767" cutoff_radius="0.90000000000000002" ultrasoft_cutoff_radius="1.4500000000000000">
   1.135580428986778E-05   1.164327784160194E-05   1.193802882081701E-05
   1.224024145646006E-05   1.255010464125600E-05   1.286781204977144E-05
   1.319356225946756E-05   1.352755887481751E-05   1.387001065456583E-05
   1.422113164220950E-05   1.458114129978177E-05   1.495026464502338E-05
   1.532873239202574E-05   1.571678109543473E-05   1.611465329830514E-05
   1.652259768369774E-05   1.694086923011440E-05   1.736972937086778E-05
   1.780944615748574E-05   1.826029442725218E-05   1.872255597498914E-05
   1.919651972918783E-05   1.968248193259807E-05   2.018074632738986E-05
   2.069162434500191E-05   2.121543530079630E-05   2.175250659364098E-05
   2.230317391054474E-05   2.286778143647214E-05   2.344668206947061E-05
   2.404023764124283E-05   2.464881914330341E-05   2.527280695886033E-05
   2.591259110056714E-05   2.656857145429303E-05   2.724115802906461E-05
   2.793077121333474E-05   2.863784203773886E-05   2.936281244450307E-05
   3.010613556367220E-05   3.086827599633083E-05   3.164971010499371E-05
   3.245092631134783E-05   3.327242540153173E-05   3.411472083914293E-05
   3.497833908616913E-05   3.586381993204386E-05   3.677171683103247E-05
   3.770259724815848E-05   3.865704301388802E-05   3.963565068779181E-05
   4.063903193141471E-05   4.166781389058357E-05   4.272263958739325E-05
   4.380416832211681E-05   4.491307608528832E-05   4.605005598021957E-05
   4.721581865621118E-05   4.841109275273143E-05   4.963662535483956E-05
   5.089318246013710E-05   5.218154945754182E-05   5.350253161818009E-05
   5.485695459870745E-05   5.624566495737084E-05   5.766953068313350E-05
   5.912944173819680E-05   6.062631061425452E-05   6.216107290282893E-05
   6.373468788004668E-05   6.534813910621506E-05   6.700243504057998E-05
   6.869860967164424E-05   7.043772316344375E-05   7.222086251818368E-05
   7.404914225564896E-05   7.592370510981519E-05   7.784572274309280E-05
   7.981639647865413E-05   8.183695805129775E-05   8.390867037732217E-05
   8.603282834388832E-05   8.821075961836476E-05   9.044382547816206E-05
   9.273342166157415E-05   9.508097924015873E-05   9.748796551320167E-05
   9.995588492482584E-05   1.024862800043160E-04   1.050807323302481E-04
   1.077408635190249E-04   1.104683362384381E-04   1.132648552468874E-04
   1.161321684589072E-04   1.190720680376698E-04   1.220863915151414E-04
   1.251770229405973E-04   1.283458940582132E-04   1.315949855144627E-04
   1.349263280960863E-04   1.383420039993931E-04   1.418441481317003E-04
   1.454349494457150E-04   1.491166523076982E-04   1.528915579002648E-04
   1.567620256606898E-04   1.607304747556334E-04   1.647993855931923E-04
   1.689713013732316E-04   1.732488296769643E-04   1.776346440967670E-04
   1.821314859072592E-04   1.867421657786823E-04   1.914695655336549E-04
   1.963166399484011E-04   2.012864185995727E-04   2.063820077578285E-04
   2.116065923293479E-04   2.169634378464918E-04   2.224558925088624E-04
   2.280873892760239E-04   2.338614480132111E-04   2.397816776913450E-04
   2.458517786427528E-04   2.520755448739839E-04   2.584568664371772E-04
   2.649997318614589E-04   2.717082306458931E-04   2.785865558155387E-04
   2.856390065422141E-04   2.928699908316067E-04   3.002840282784051E-04
   3.078857528911790E-04   3.156799159887691E-04   3.236713891700024E-04
   3.318651673585775E-04   3.385320741162963E-04   3.471051767122986E-04
   3.559828715037723E-04   3.650246295432706E-04   3.742881114992078E-04
   3.854540567638500E-04   3.951981427887693E-04   4.052087802006970E-04
   4.154799649814936E-04   4.259913881031823E-04   4.367999163176562E-04
   4.478444747896288E-04   4.591838324048750E-04   4.708120388809234E-04
   4.827463862834514E-04   4.949478659122667E-04   5.075016889737596E-04
   5.203461509403332E-04   5.335058928152528E-04   5.470454451702283E-04
   5.608628960202043E-04   5.750864636195384E-04   5.896679525686363E-04
   6.045820765673967E-04   6.198657228871094E-04   6.355800706390295E-04
   6.516688179574494E-04   6.681728920552112E-04   6.850800494278952E-04
   7.024188666105140E-04   7.202292734845750E-04   7.384445407708370E-04
   7.571671133679435E-04   7.762997012446373E-04   7.959928812825271E-04
   8.161262101847640E-04   8.368179584724786E-04   8.579871570896752E-04
   8.796970615438156E-04   9.019926963167602E-04   9.248064483567322E-04
   9.482372863072186E-04   9.722327822966189E-04   9.968587220623775E-04
   1.022084214029315E-03   1.047951125009556E-03   1.074497222710720E-03
   1.101694911898523E-03   1.129613212175680E-03   1.158203815023274E-03
   1.187514637685020E-03   1.217581947149091E-03   1.248408891337725E-03
   1.280027600108176E-03   1.312423824314545E-03   1.345655096649543E-03
   1.379705289947582E-03   1.414678224569101E-03   1.450454803146167E-03
   1.487206145510101E-03   1.524836053244842E-03   1.563419334601077E-03
   1.603044314850903E-03   1.643607674322897E-03   1.685212488407068E-03
   1.727879306888306E-03   1.771619289178166E-03   1.816486146141452E-03
   1.862468461774998E-03   1.909631700638771E-03   1.957977424701171E-03
   2.007529638053519E-03   2.058368031140437E-03   2.110465213794099E-03
   2.163907445565945E-03   2.218685647808374E-03   2.274862244699041E-03
   2.332426621733597E-03   2.391477319155058E-03   2.452012593384978E-03
   2.514104718161356E-03   2.577758491133609E-03   2.643009451445627E-03
   2.709910841070860E-03   2.778526659858527E-03   2.848878154128239E-03
   2.920987883524673E-03   2.994952017064179E-03   3.070738086937501E-03
   3.148514736556366E-03   3.228193322076928E-03   3.309936684447111E-03
   3.393701188768474E-03   3.479629224711581E-03   3.567726973808328E-03
   3.658045288191235E-03   3.750628030264498E-03   3.845612951976225E-03
   3.942957238177766E-03   4.042765822078687E-03   4.145127158351535E-03
   4.250051399650880E-03   4.357659478553735E-03   4.467921881807047E-03
   4.581093712408207E-03   4.697048146228195E-03   4.815943384343428E-03
   4.937858154814921E-03   5.062871345781036E-03   5.191029574404336E-03
   5.322441434541809E-03   5.457189475559277E-03   5.595321078614181E-03
   5.736980618214604E-03   5.882227925861148E-03   6.031139172816238E-03
   6.183812226602005E-03   6.340347843791023E-03   6.500855402842200E-03
   6.665414621483630E-03   6.834140285107544E-03   7.007159701413405E-03
   7.184528679965385E-03   7.366440118453117E-03   7.552896349516863E-03
   7.744112707266326E-03   7.940130770051172E-03   8.141165731049546E-03
   8.347237904236304E-03   8.558559031780218E-03   8.775202551806964E-03
   8.997324663259074E-03   9.225118954713681E-03   9.458627891911486E-03
   9.698088860218265E-03   9.943593763389956E-03   1.019528905034142E-02
   1.045341155400009E-02   1.071800282279915E-02   1.098933216350099E-02
   1.126752995343867E-02   1.155277453252098E-02   1.184521265823723E-02
   1.214506397148348E-02   1.245249708400099E-02   1.276774063852863E-02
   1.309093735228569E-02   1.342231277413740E-02   1.376209395881306E-02
   1.411050556664460E-02   1.446766655258779E-02   1.483390875731112E-02
   1.520942680075610E-02   1.559442314478807E-02   1.598919205439193E-02
   1.639393025826136E-02   1.680894599671462E-02   1.723442804206878E-02
   1.767067472725342E-02   1.811800307398771E-02   1.857664153603319E-02
   1.904688491958870E-02   1.952902125828566E-02   2.002338708918386E-02
   2.053024179103519E-02   2.104993978447016E-02   2.158276144038603E-02
   2.212911043363833E-02   2.268927628487080E-02   2.326359546316575E-02
   2.385250904411770E-02   2.445624621519298E-02   2.507534126594817E-02
   2.571006647301602E-02   2.636085741420076E-02   2.702814197225405E-02
   2.771231688047467E-02   2.841377671595532E-02   2.913298530995390E-02
   2.987044282811654E-02   3.062652157698023E-02   3.140179475461438E-02
   3.219661359623358E-02   3.301162565933891E-02   3.384722713835334E-02
   3.470394121170264E-02   3.558240410886557E-02   3.648304715090020E-02
   3.740652638747008E-02   3.835334069808294E-02   3.932413713768620E-02
   4.031951345868134E-02   4.134007894208602E-02   4.238644122195770E-02
   4.345931333393135E-02   4.455932033263510E-02   4.568718487012494E-02
   4.684356939011416E-02   4.802925443093387E-02   4.924492545542225E-02
   5.049135032833674E-02   5.176932488301339E-02   5.307965337387416E-02
   5.442311424380639E-02   5.580058697179513E-02   5.721291226284214E-02
   5.866098470510947E-02   6.014569926180180E-02   6.166799411167662E-02
   6.322879352930699E-02   6.482909497437805E-02   6.646988475696430E-02
   6.815220621728474E-02   6.987706064083471E-02   7.164560442141327E-02
   7.345886504874571E-02   7.531803025626937E-02   7.722423873497131E-02
   7.917866205375995E-02   8.118252249359759E-02   8.323711129264366E-02
   8.534366483892902E-02   8.750348789246976E-02   8.971802407936119E-02
   9.198852596349882E-02   9.431652338719132E-02   9.670335592586760E-02
   9.915063139129632E-02   1.016597210161617E-01   1.042326913922523E-01
   1.068699739553365E-01   1.095741282599977E-01   1.123478458507138E-01
   1.151903809943313E-01   1.181050085394169E-01   1.210933520127453E-01
   1.241597206580816E-01   1.272991295828607E-01   1.305209034418313E-01
   1.338238335956800E-01   1.372103038534319E-01   1.406815278373111E-01
   1.442417425931981E-01   1.478908743651816E-01   1.516341487801847E-01
   1.554692616680747E-01   1.594024530004792E-01   1.634379035189231E-01
   1.675714151404842E-01   1.718104588064460E-01   1.761590767987287E-01
   1.806143689577078E-01   1.851849326631926E-01   1.898686140174782E-01
   1.946731830288636E-01   1.995978543617040E-01   2.046469120551049E-01
   2.098233469412382E-01   2.151326310902619E-01   2.205738831113448E-01
   2.261538834683173E-01   2.318732283177365E-01   2.377398184923685E-01
   2.437540855866673E-01   2.499174916250728E-01   2.562404412550501E-01
   2.627197544571327E-01   2.693664371957163E-01   2.761778200611527E-01
   2.831628656787732E-01   2.903249306658997E-01   2.976664116649601E-01
   3.051948290601347E-01   3.129117597458759E-01   3.208252284241904E-01
   3.289386419641467E-01   3.372549496642312E-01   3.457836525323670E-01
   3.545274752575203E-01   3.634890892434142E-01   3.726813774272948E-01
   3.821038374545624E-01   3.917623432081843E-01   4.016689764732653E-01
   4.118189454791128E-01   4.222348705559842E-01   4.329051937439081E-01
   4.438481203594478E-01   4.550668790027279E-01   4.665697456068740E-01
   4.783615686424754E-01   4.904519636404583E-01   5.028454340882997E-01
   5.155535593147120E-01   5.285820178066998E-01   5.419391621881178E-01
   5.556319373749661E-01   5.696714077448886E-01   5.840646891983772E-01
   5.988199817665345E-01   6.139469850872201E-01   6.294583598114341E-01
   6.453568847004973E-01   6.616595557197096E-01   6.783698389570709E-01
   6.955033214858486E-01   7.130657522346033E-01   7.310767422933324E-01
   7.495354801780678E-01   7.684596420785912E-01   7.878626735266332E-01
   8.077534732944027E-01   8.281452499432800E-01   8.490495358272745E-01
   8.704797420793819E-01   8.924512222479999E-01   9.149728006780613E-01
   9.380630869199260E-01   9.617330440445482E-01   9.859984565467448E-01
   1.010874154321359E+00   1.036375377197133E+00   1.062517345971764E+00
   1.089316057413193E+00   1.116789352542676E+00   1.144950121405572E+00
   1.173821908714011E+00   1.203416003846190E+00   1.233753501845458E+00
   1.264853519049241E+00   1.296732590389168E+00   1.329413471502724E+00
   1.362910979902426E+00   1.397253041703507E+00   1.432450818015590E+00
   1.468536108954329E+00   1.505521840591954E+00   1.543436257227683E+00
   1.582299368721134E+00   1.622136109099826E+00   1.662969266072342E+00
   1.704825422158703E+00   1.747728555892541E+00   1.791704006025645E+00
   1.836779184932350E+00   1.882981537216398E+00   1.930337740286609E+00
   1.978877239104895E+00   2.028628631239989E+00   2.079622126400320E+00
   2.131887180842556E+00   2.185456637850175E+00   2.240362345119179E+00
   2.296634613153447E+00   2.354310220991691E+00   2.413422509087944E+00
   2.474004671596159E+00   2.536095715011324E+00   2.599730785187983E+00
   2.664946035837801E+00   2.731784822854591E+00   2.800281112427648E+00
   2.870478499466435E+00   2.942417817692274E+00   3.016141126478237E+00
   3.091690656388392E+00   3.169112917587743E+00   3.248451254861399E+00
   3.329752973785071E+00   3.413064497355949E+00   3.498436098258750E+00
   3.585914595318297E+00   3.675553553169143E+00   3.767402677222348E+00
   3.861516553305528E+00   3.957947760576431E+00   4.056753142762698E+00
   4.157988134035392E+00   4.261712264113580E+00   4.367982286433310E+00
   4.476861251432794E+00   4.588409226399222E+00   4.702690106908442E+00
   4.819768176930641E+00   4.939709616049296E+00   5.062581308185464E+00
   5.188452805636320E+00   5.317393757898245E+00   5.449475810545671E+00
   5.584773017631715E+00   5.723359489905160E+00   5.865311734320326E+00
   6.010708147016427E+00   6.159627388903210E+00   6.312151767251173E+00
   6.468363255740801E+00   6.628346876413477E+00   6.792188412899414E+00
   6.959976414733312E+00   7.131799569028527E+00   7.307750396137042E+00
   7.487921359382046E+00   7.672407218572850E+00   7.861306028775623E+00
   8.054714416262257E+00   8.252734586015642E+00   8.455467932880495E+00
   8.663018520079028E+00   8.875492753386091E+00   9.092998327976289E+00
   9.315645105219915E+00   9.543544531785301E+00   9.776810364226741E+00
   1.001555804581088E+01   1.025990499168911E+01   1.050997010689813E+01
   1.076587519313643E+01   1.102774260203699E+01   1.129569773303855E+01
   1.156986702120881E+01   1.185037935853369E+01   1.213736503072910E+01
   1.243095600235998E+01   1.273128687131467E+01   1.303849262244475E+01
   1.335271151589559E+01   1.367408162260582E+01   1.400274467277480E+01
   1.433884201884207E+01   1.468251786620943E+01   1.503391723241128E+01
   1.539318664936707E+01   1.576047399833272E+01   1.613592805939302E+01
   1.651969904501373E+01   1.691193800346922E+01   1.731279706189160E+01
   1.772242880506866E+01   1.814098661868600E+01   1.856862439602126E+01
   1.900549655124816E+01   1.945175735020644E+01   1.990756128456078E+01
   2.037306281244709E+01   2.084841550195497E+01   2.133377321726739E+01
   2.182928810268710E+01   2.233511182379817E+01   2.285139482989612E+01
   2.337828528879308E+01   2.391593055622677E+01   2.446447483113798E+01
   2.502406047183977E+01   2.559482668288335E+01   2.617690949318641E+01
   2.677044139703771E+01   2.737555080999672E+01   2.799236164676400E+01
   2.862099295819665E+01   2.926155831295196E+01   2.991416538583282E+01
   3.057891536937937E+01   3.125590234054617E+01   3.194521274224088E+01
   3.264692468718505E+01   3.336110733203034E+01   3.408782010872491E+01
   3.482711202647681E+01   3.557902082539842E+01   3.634357233280990E+01
   3.712077930294069E+01   3.791064081441016E+01   3.871314110509957E+01
   3.952824872306884E+01   4.035591542961302E+01   4.119607509542877E+01
   4.204864256189336E+01   4.291351260152933E+01   4.379055847408853E+01
   4.467963072642931E+01   4.558055593731510E+01   4.649313521144472E+01
   4.741714270871236E+01   4.835232431108111E+01   4.929839573543521E+01
   5.025504139439437E+01   5.122191208332919E+01   5.219862389108178E+01
   5.318475578040872E+01   5.417984833648262E+01   5.518340125537330E+01
   5.619487173851519E+01   5.721367240539362E+01   5.823916899550764E+01
   5.927067848211931E+01   6.030746653824892E+01   6.134874576294243E+01
   6.239367267675732E+01   6.344134604385422E+01   6.449080415359742E+01
   6.554102215570821E+01   6.659091015638577E+01   6.763931025892037E+01
   6.868499415491833E+01   6.972666071813212E+01   7.076293330212170E+01
   7.179235741680681E+01   7.281339802206105E+01   7.382443711402384E+01
   7.482377144423094E+01   7.580960987857860E+01   7.678007126224372E+01
   7.773318227202861E+01   7.866687512214784E+01   7.957898573728838E+01
   8.046725197646738E+01   8.132931190705089E+01   8.216270242243708E+01
   8.296485818616421E+01   8.373311054316474E+01   8.446468698065586E+01
   8.515671114657768E+01   8.580620249359816E+01   8.641007731996480E+01
   8.696514952543284E+01   8.746813231146410E+01   8.791564019070290E+01
   8.830419196430020E+01   8.863021397918490E+01   8.889004438101237E+01
   8.907993824191610E+01   8.919607337436979E+01   8.923455716744675E+01
   8.919143452364794E+01   8.906269676719599E+01   8.884429190028158E+01
   8.853213597796652E+01   8.812212575135894E+01   8.761015307931399E+01
   8.699212042631933E+01   8.626395815764232E+01   8.542164376304837E+01
   8.446122213261955E+01   8.337882846080970E+01   8.217071265231124E+01
   8.083326565369725E+01   7.936304812694743E+01   7.775682094262072E+01
   7.601157802541599E+01   7.412458126996881E+01   7.209339783518465E+01
   6.991593936080454E+01   6.759050367481291E+01   6.511581869417660E+01
   6.249108807379071E+01   5.971603934324332E+01   5.679097357480680E+01
   5.371681719135643E+01   5.049517471731713E+01   4.712838376956518E+01
   4.361957005638067E+01   3.997270393714962E+01   3.619265663276610E+01
   3.228525679272332E+01   2.825734600447549E+01   2.411683315667074E+01
   1.987274676488732E+01   1.553528474879761E+01   1.111586026181544E+01
   6.627143463392258E+00   2.083097158904138E+00  -2.500993714318156E+00
  -7.108501048798416E+00  -1.172144151001794E+01  -1.632047544159718E+01
  -2.088491808815797E+01  -2.539276480478884E+01  -2.982073216471849E+01
  -3.414431670771478E+01  -3.833787334694580E+01  -4.237471572058439E+01
  -4.622724016579787E+01  -4.986707609273913E+01  -5.326526463514392E+01
  -5.639246792146810E+01  -5.921921159003955E+01  -6.171616235372812E+01
  -6.385444333323176E+01  -6.560598905328743E+01  -6.694394235683956E+01
  -6.784309494720571E+01  -6.828037351309706E+01  -6.823537288134821E+01
  -6.769093722534012E+01  -6.663379026939378E+01  -6.505521501310420E+01
  -6.295178255427368E+01  -6.032612972159416E+01  -5.718778393875766E+01
  -5.355419993731698E+01  -4.945132480574762E+01  -4.491305647209140E+01
  -3.996800394422007E+01  -3.468627272818100E+01  -2.912441998327307E+01
  -2.335456072443270E+01  -1.746011594902478E+01  -1.153647998843968E+01
  -5.691651791663247E+00  -4.681539168433346E-02   5.263145787156731E+00
   1.008921827326323E+01   1.426793066250885E+01   1.762114912973438E+01
   1.995602188957242E+01   2.106507360189564E+01   2.072670190253357E+01
   1.870391533848357E+01   1.476260062783754E+01   8.502825721787067E+00
   1.009611510451000E+00  -1.014552708344526E-01   8.567480591667256E-03
  -2.462064143124547E-03  -1.482845707065568E-03  -1.687263010460500E-03
  -1.767574825706423E-03  -1.853634586699189E-03  -1.932761090019162E-03
  -2.006423196015272E-03  -2.074664108490783E-03  -2.137681478785279E-03
  -2.195645922308670E-03  -2.248736068141853E-03  -2.297123890015537E-03
  -2.340975557366043E-03  -2.380463222925154E-03  -2.415743756274201E-03
  -2.446984109209081E-03  -2.474332760709254E-03  -2.497949206568034E-03
  -2.517981003043269E-03  -2.534569433504981E-03  -2.547862027837222E-03
  -2.557994002870425E-03  -2.565096521663522E-03  -2.569303704397152E-03
  -2.570738983324001E-03  -2.569528473347766E-03  -2.565789030123691E-03
   0.000000000000000E+00   0.000000000000000E+00   0.000000000000000E+00
   0.000000000000000E+00   0.000000000000000E+00   0.000000000000000E+00
   0.000000000000000E+00   0.000000000000000E+00   0.000000000000000E+00
   0.000000000000000E+00   0.000000000000000E+00   0.000000000000000E+00
   0.000000000000000E+00   0.000000000000000E+00   0.000000000000000E+00
   0.000000000000000E+00   0.000000000000000E+00   0.000000000000000E+00
   0.000000000000000E+00   0.000000000000000E+00   0.000000000000000E+00
   0.000000000000000E+00   0.000000000000000E+00   0.000000000000000E+00
   0.000000000000000E+00   0.000000000000000E+00   0.000000000000000E+00
   0.000000000000000E+00   0.000000000000000E+00   0.000000000000000E+00
   0.000000000000000E+00   0.000000000000000E+00   0.000000000000000E+00
   0.000000000000000E+00   0.000000000000000E+00   0.000000000000000E+00
   0.000000000000000E+00   0.000000000000000E+00   0.000000000000000E+00
   0.000000000000000E+00   0.000000000000000E+00   0.000000000000000E+00
   0.000000000000000E+00   0.000000000000000E+00   0.000000000000000E+00
   0.000000000000000E+00   0.000000000000000E+00   0.000000000000000E+00
   0.000000000000000E+00   0.000000000000000E+00   0.000000000000000E+00
   0.000000000000000E+00   0.000000000000000E+00   0.000000000000000E+00
   0.000000000000000E+00   0.000000000000000E+00   0.000000000000000E+00
   0.000000000000000E+00   0.000000000000000E+00   0.000000000000000E+00
   0.000000000000000E+00   0.000000000000000E+00   0.000000000000000E+00
   0.000000000000000E+00   0.000000000000000E+00   0.000000000000000E+00
   0.000000000000000E+00   0.000000000000000E+00   0.000000000000000E+00
   0.000000000000000E+00   0.000000000000000E+00   0.000000000000000E+00
   0.000000000000000E+00   0.000000000000000E+00   0.000000000000000E+00
   0.000000000000000E+00   0.000000000000000E+00   0.000000000000000E+00
   0.000000000000000E+00   0.000000000000000E+00   0.000000000000000E+00
   0.000000000000000E+00   0.000000000000000E+00   0.000000000000000E+00
   0.000000000000000E+00   0.000000000000000E+00   0.000000000000000E+00
   0.000000000000000E+00   0.000000000000000E+00   0.000000000000000E+00
   0.000000000000000E+00   0.000000000000000E+00   0.000000000000000E+00
   0.000000000000000E+00   0.000000000000000E+00   0.000000000000000E+00
   0.000000000000000E+00   0.000000000000000E+00   0.000000000000000E+00
   0.000000000000000E+00   0.000000000000000E+00   0.000000000000000E+00
   0.000000000000000E+00   0.000000000000000E+00   0.000000000000000E+00
   0.000000000000000E+00   0.000000000000000E+00   0.000000000000000E+00
   0.000000000000000E+00   0.000000000000000E+00   0.000000000000000E+00
   0.000000000000000E+00   0.000000000000000E+00   0.000000000000000E+00
   0.000000000000000E+00   0.000000000000000E+00   0.000000000000000E+00
   0.000000000000000E+00   0.000000000000000E+00   0.000000000000000E+00
   0.000000000000000E+00   0.000000000000000E+00   0.000000000000000E+00
   0.000000000000000E+00   0.000000000000000E+00   0.000000000000000E+00
   0.000000000000000E+00   0.000000000000000E+00   0.000000000000000E+00
   0.000000000000000E+00   0.000000000000000E+00   0.000000000000000E+00
   0.000000000000000E+00   0.000000000000000E+00   0.000000000000000E+00
   0.000000000000000E+00   0.000000000000000E+00   0.000000000000000E+00
   0.000000000000000E+00   0.000000000000000E+00   0.000000000000000E+00
   0.000000000000000E+00   0.000000000000000E+00   0.000000000000000E+00
   0.000000000000000E+00   0.000000000000000E+00   0.000000000000000E+00
   0.000000000000000E+00   0.000000000000000E+00   0.000000000000000E+00
   0.000000000000000E+00   0.000000000000000E+00   0.000000000000000E+00
   0.000000000000000E+00   0.000000000000000E+00   0.000000000000000E+00
   0.000000000000000E+00   0.000000000000000E+00   0.000000000000000E+00
   0.000000000000000E+00   0.000000000000000E+00   0.000000000000000E+00
   0.000000000000000E+00   0.000000000000000E+00   0.000000000000000E+00
   0.000000000000000E+00   0.000000000000000E+00   0.000000000000000E+00
   0.000000000000000E+00   0.000000000000000E+00   0.000000000000000E+00
   0.000000000000000E+00   0.000000000000000E+00   0.000000000000000E+00
   0.000000000000000E+00   0.000000000000000E+00   0.000000000000000E+00
   0.000000000000000E+00   0.000000000000000E+00   0.000000000000000E+00
   0.000000000000000E+00   0.000000000000000E+00   0.000000000000000E+00
   0.000000000000000E+00   0.000000000000000E+00   0.000000000000000E+00
   0.000000000000000E+00   0.000000000000000E+00   0.000000000000000E+00
   0.000000000000000E+00   0.000000000000000E+00   0.000000000000000E+00
   0.000000000000000E+00   0.000000000000000E+00   0.000000000000000E+00
   0.000000000000000E+00   0.000000000000000E+00   0.000000000000000E+00
   0.000000000000000E+00   0.000000000000000E+00   0.000000000000000E+00
   0.000000000000000E+00   0.000000000000000E+00   0.000000000000000E+00
   0.000000000000000E+00   0.000000000000000E+00   0.000000000000000E+00
   0.000000000000000E+00   0.000000000000000E+00   0.000000000000000E+00
   0.000000000000000E+00   0.000000000000000E+00   0.000000000000000E+00
   0.000000000000000E+00   0.000000000000000E+00   0.000000000000000E+00
   0.000000000000000E+00   0.000000000000000E+00   0.000000000000000E+00
   0.000000000000000E+00   0.000000000000000E+00   0.000000000000000E+00
   0.000000000000000E+00   0.000000000000000E+00   0.000000000000000E+00
   0.000000000000000E+00   0.000000000000000E+00   0.000000000000000E+00
   0.000000000000000E+00   0.000000000000000E+00   0.000000000000000E+00
   0.000000000000000E+00   0.000000000000000E+00   0.000000000000000E+00
   0.000000000000000E+00   0.000000000000000E+00   0.000000000000000E+00
   0.000000000000000E+00   0.000000000000000E+00   0.000000000000000E+00
   0.000000000000000E+00   0.000000000000000E+00   0.000000000000000E+00
   0.000000000000000E+00   0.000000000000000E+00   0.000000000000000E+00
   0.000000000000000E+00   0.000000000000000E+00   0.000000000000000E+00
   0.000000000000000E+00   0.000000000000000E+00   0.000000000000000E+00
   0.000000000000000E+00   0.000000000000000E+00   0.000000000000000E+00
   0.000000000000000E+00   0.000000000000000E+00   0.000000000000000E+00
   0.000000000000000E+00   0.000000000000000E+00   0.000000000000000E+00
   0.000000000000000E+00   0.000000000000000E+00   0.000000000000000E+00
   0.000000000000000E+00   0.000000000000000E+00   0.000000000000000E+00
   0.000000000000000E+00   0.000000000000000E+00   0.000000000000000E+00
   0.000000000000000E+00   0.000000000000000E+00   0.000000000000000E+00
   0.000000000000000E+00   0.000000000000000E+00   0.000000000000000E+00
   0.000000000000000E+00   0.000000000000000E+00   0.000000000000000E+00
   0.000000000000000E+00   0.000000000000000E+00   0.000000000000000E+00
   0.000000000000000E+00   0.000000000000000E+00   0.000000000000000E+00
   0.000000000000000E+00   0.000000000000000E+00   0.000000000000000E+00
   0.000000000000000E+00   0.000000000000000E+00   0.000000000000000E+00
   0.000000000000000E+00   0.000000000000000E+00   0.000000000000000E+00
   0.000000000000000E+00   0.000000000000000E+00   0.000000000000000E+00
   0.000000000000000E+00   0.000000000000000E+00   0.000000000000000E+00
   0.000000000000000E+00   0.000000000000000E+00   0.000000000000000E+00
   0.000000000000000E+00   0.000000000000000E+00   0.000000000000000E+00
   0.000000000000000E+00   0.000000000000000E+00   0.000000000000000E+00
    </PP_BETA.4>
    <PP_DIJ columns="4" rows="4">
  0.53906465870952758       0.33845280814331558        0.0000000000000000        0.0000000000000000     
  0.33845280814331558       0.19697585238621507        0.0000000000000000        0.0000000000000000     
   0.0000000000000000        0.0000000000000000       0.94019686192940410       0.70386516602630622     
   0.0000000000000000        0.0000000000000000       0.70386516602630622       0.52429230851257680     
    </PP_DIJ>
    <PP_AUGMENTATION q_with_l="true" nqf="0" nqlc="3" shape="PSQ" cutoff_r="-1.0000000000000000" cutoff_r_index="775" augmentation_epsilon="9.9999999999999998E-013" l_max_aug="2">
      <PP_Q size="16">
 -0.15649483704086051      -0.12380233619174338        0.0000000000000000        0.0000000000000000     
 -0.12380233619174338       -9.9074345577777709E-002   0.0000000000000000        0.0000000000000000     
   0.0000000000000000        0.0000000000000000       0.18153607797742735       0.12417386817868421     
   0.0000000000000000        0.0000000000000000       0.12417386817868421        8.4823232847995866E-002
      </PP_Q>
<!--augmentation charge multipoles ( only for PAW) 
multipole array dims = (nbeta,nbeta,2*lmax+1)-->
      <PP_MULTIPOLES nbeta="4" lmax="1">
 -0.15649483704086051      -0.12380233619174338        0.0000000000000000        0.0000000000000000     
 -0.12380233619174338       -9.9074345577777709E-002   0.0000000000000000        0.0000000000000000     
   0.0000000000000000        0.0000000000000000       0.18153607797742735       0.12417386817868421     
   0.0000000000000000        0.0000000000000000       0.12417386817868421        8.4823232847995866E-002
   0.0000000000000000        0.0000000000000000       -2.5759943348321514E-002  -1.9541142231385641E-002
   0.0000000000000000        0.0000000000000000       -1.8714971216175758E-002  -1.4031574682094124E-002
  -2.5759943348321514E-002  -1.8714971216175758E-002   0.0000000000000000        0.0000000000000000     
  -1.9541142231385641E-002  -1.4031574682094124E-002   0.0000000000000000        0.0000000000000000     
   0.0000000000000000        0.0000000000000000        0.0000000000000000        0.0000000000000000     
   0.0000000000000000        0.0000000000000000        0.0000000000000000        0.0000000000000000     
   0.0000000000000000        0.0000000000000000        6.4441094017214609E-002   4.3663465246455223E-002
   0.0000000000000000        0.0000000000000000        4.3663465246455223E-002   2.9476142893432759E-002
      </PP_MULTIPOLES>
      <PP_QIJL.1.1.0 first_index="1" second_index="1" composite_index="1" angular_momentum="0" size="1095">
  -5.275716069814172E-08  -5.409271449537342E-08  -5.546207799362327E-08
  -5.686610708932554E-08  -5.830567934602479E-08  -5.978169454288033E-08
  -6.129507523705677E-08  -6.284676734035140E-08  -6.443774071041854E-08
  -6.606898975696183E-08  -6.774153406327060E-08  -6.945641902349204E-08
  -7.121471649603521E-08  -7.301752547351599E-08  -7.486597276966248E-08
  -7.676121372360803E-08  -7.870443292201472E-08  -8.069684493947705E-08
  -8.273969509766863E-08  -8.483426024370784E-08  -8.698184954822589E-08
  -8.918380532363991E-08  -9.144150386313957E-08  -9.375635630091317E-08
  -9.612980949415042E-08  -9.856334692737227E-08  -1.010584896396551E-07
  -1.036167971753271E-07  -1.062398685587308E-07  -1.089293432936639E-07
  -1.116869023881177E-07  -1.145142694049601E-07  -1.174132115392144E-07
  -1.203855407226103E-07  -1.234331147560971E-07  -1.265578384710252E-07
  -1.297616649197239E-07  -1.330465965962181E-07  -1.364146866878485E-07
  -1.398680403585754E-07  -1.434088160647693E-07  -1.470392269043118E-07
  -1.507615419998479E-07  -1.545780879170559E-07  -1.584912501188212E-07
  -1.625034744562207E-07  -1.666172686972533E-07  -1.708352040942697E-07
  -1.751599169910805E-07  -1.795941104707510E-07  -1.841405560451055E-07
  -1.888020953870052E-07  -1.935816421064772E-07  -1.984821835718052E-07
  -2.035067827767238E-07  -2.086585802548764E-07  -2.139407960427410E-07
  -2.193567316922469E-07  -2.249097723343382E-07  -2.306033887947805E-07
  -2.364411397635235E-07  -2.424266740189861E-07  -2.485637327086456E-07
  -2.548561516873611E-07  -2.613078639148925E-07  -2.679229019141090E-07
  -2.747054002914300E-07  -2.816595983210696E-07  -2.887898425946995E-07
  -2.961005897381924E-07  -3.035964091971320E-07  -3.112819860928440E-07
  -3.191621241507247E-07  -3.272417487026986E-07  -3.355259097656869E-07
  -3.440197851980004E-07  -3.527286839356411E-07  -3.616580493105285E-07
  -3.708134624527252E-07  -3.802006457787921E-07  -3.898254665684454E-07
  -3.996939406317599E-07  -4.098122360692066E-07  -4.201866771268715E-07
  -4.308237481492742E-07  -4.417300976322420E-07  -4.529125423783904E-07
  -4.643780717577933E-07  -4.761338520765113E-07  -4.881872310557117E-07
  -5.005457424241688E-07  -5.132171106270280E-07  -5.262092556537688E-07
  -5.395302979883839E-07  -5.531885636848768E-07  -5.671925895712322E-07
  -5.815511285851343E-07  -5.962731552447500E-07  -6.113678712580042E-07
  -6.268447112738561E-07  -6.427133487791548E-07  -6.589837021447846E-07
  -6.756659408248560E-07  -6.927704917128295E-07  -7.103080456585472E-07
  -7.282895641502256E-07  -7.467262861656114E-07  -7.656297351965679E-07
  -7.850117264514810E-07  -8.048843742399981E-07  -8.252600995446933E-07
  -8.461516377844180E-07  -8.675720467741688E-07  -8.895347148864555E-07
  -9.120533694192727E-07  -9.351420851758898E-07  -9.588152932618426E-07
  -9.830877901046108E-07  -1.007974746701619E-06  -1.033491718102353E-06
  -1.059654653130489E-06  -1.086479904352152E-06  -1.113984238296495E-06
  -1.142184845935016E-06  -1.171099353426144E-06  -1.200745833131806E-06
  -1.231142814912880E-06  -1.262309297710577E-06  -1.294264761420990E-06
  -1.327029179070244E-06  -1.360623029297830E-06  -1.395067309155957E-06
  -1.430383547232899E-06  -1.466593817108538E-06  -1.503720751150540E-06
  -1.541787554659722E-06  -1.580818020373535E-06  -1.620836543336659E-06
  -1.661868136148029E-06  -1.703938444593832E-06  -1.747073763676208E-06
  -1.791301054047715E-06  -1.836647958861796E-06  -1.883142821049791E-06
  -1.930814701035301E-06  -1.979693394896938E-06  -2.029809452990854E-06
  -2.081194199044662E-06  -2.133879749734682E-06  -2.187899034758763E-06
  -2.243285817417184E-06  -2.300074715714545E-06  -2.358301223995803E-06
  -2.418001735129976E-06  -2.479213563255402E-06  -2.541974967100697E-06
  -2.606325173896094E-06  -2.672304403889994E-06  -2.739953895486124E-06
  -2.809315931016982E-06  -2.880433863169648E-06  -2.953352142080527E-06
  -3.028116343115919E-06  -3.104773195355758E-06  -3.183370610798403E-06
  -3.263957714304550E-06  -3.346584874299240E-06  -3.431303734250866E-06
  -3.518167244947041E-06  -3.607229697587453E-06  -3.698546757714255E-06
  -3.792175500001450E-06  -3.888174443924703E-06  -3.986603590334097E-06
  -4.087524458952609E-06  -4.191000126823617E-06  -4.297095267731746E-06
  -4.405876192621311E-06  -4.517410891037922E-06  -4.631769073618997E-06
  -4.749022215659657E-06  -4.869243601781483E-06  -4.992508371731675E-06
  -5.118893567341554E-06  -5.248478180673582E-06  -5.381343203386870E-06
  -5.517571677352381E-06  -5.657248746548966E-06  -5.800461710273022E-06
  -5.947300077694888E-06  -6.097855623795893E-06  -6.252222446721406E-06
  -6.410497026585184E-06  -6.572778285762199E-06  -6.739167650707397E-06
  -6.909769115338883E-06  -7.084689306025523E-06  -7.264037548219024E-06
  -7.447925934772534E-06  -7.636469395988288E-06  -7.829785771437821E-06
  -8.027995883600162E-06  -8.231223613363264E-06  -8.439595977436461E-06
  -8.653243207721992E-06  -8.872298832695001E-06  -9.096899760843381E-06
  -9.327186366218848E-06  -9.563302576153252E-06  -9.805395961194673E-06
  -1.005361782731921E-05  -1.030812331047668E-05  -1.056907147352848E-05
  -1.083662540563871E-05  -1.111095232418049E-05  -1.139222367922063E-05
  -1.168061526064885E-05  -1.197630730801728E-05  -1.227948462315968E-05
  -1.259033668566039E-05  -1.290905777124472E-05  -1.323584707316559E-05
  -1.357090882666098E-05  -1.391445243656100E-05  -1.426669260812352E-05
  -1.462784948118006E-05  -1.499814876767628E-05  -1.537782189269188E-05
  -1.576710613902881E-05  -1.616624479545772E-05  -1.657548730871466E-05
  -1.699508943934397E-05  -1.742531342148329E-05  -1.786642812669131E-05
  -1.831870923192041E-05  -1.878243939173802E-05  -1.925790841490576E-05
  -1.974541344542482E-05  -2.024525914816165E-05  -2.075775789916943E-05
  -2.128322998082347E-05  -2.182200378189344E-05  -2.237441600267577E-05
  -2.294081186531515E-05  -2.352154532944605E-05  -2.411697931328822E-05
  -2.472748592033487E-05  -2.535344667177390E-05  -2.599525274478784E-05
  -2.665330521688073E-05  -2.732801531638391E-05  -2.801980467929766E-05
  -2.872910561262768E-05  -2.945636136438152E-05  -3.020202640039256E-05
  -3.096656668814411E-05  -3.175045998777078E-05  -3.255419615041783E-05
  -3.337827742414491E-05  -3.422321876756452E-05  -3.508954817141012E-05
  -3.597780698823492E-05  -3.688855027044584E-05  -3.782234711688364E-05
  -3.877978102816498E-05  -3.976145027100693E-05  -4.076796825176179E-05
  -4.179996389939351E-05  -4.285808205813504E-05  -4.394298389007036E-05
  -4.505534728789151E-05  -4.619586729808819E-05  -4.736525655483201E-05
  -4.856424572482615E-05  -4.979358396339680E-05  -5.105403938210956E-05
  -5.234639952820220E-05  -5.367147187613094E-05  -5.503008433153658E-05
  -5.642308574794332E-05  -5.785134645651070E-05  -5.931575880916910E-05
  -6.081723773547459E-05  -6.235672131353016E-05  -6.393517135532746E-05
  -6.555357400687175E-05  -6.721294036346413E-05  -6.891430710052085E-05
  -7.065873712032291E-05  -7.244732021509659E-05  -7.428117374683513E-05
  -7.616144334428529E-05  -7.808930361752857E-05  -8.006595889060186E-05
  -8.209264395261101E-05  -8.417062482780164E-05  -8.630119956506638E-05
  -8.848569904737525E-05  -9.072548782163222E-05  -9.302196494947051E-05
  -9.537656487951335E-05  -9.779075834164062E-05  -1.002660532638134E-04
  -1.028039957120244E-04  -1.054061708539552E-04  -1.080742039469350E-04
  -1.108097613508128E-04  -1.136145515663674E-04  -1.164903262998972E-04
  -1.194388815546468E-04  -1.224620587497438E-04  -1.255617458673368E-04
  -1.287398786286407E-04  -1.319984416996156E-04  -1.353394699270226E-04
  -1.387650496056162E-04  -1.422773197772565E-04  -1.458784735627370E-04
  -1.495707595271529E-04  -1.533564830796445E-04  -1.572380079083799E-04
  -1.612177574516580E-04  -1.652982164060340E-04  -1.694819322723972E-04
  -1.737715169409457E-04  -1.781696483160350E-04  -1.826790719818916E-04
  -1.873026029102181E-04  -1.920431272107321E-04  -1.969036039257128E-04
  -2.018870668696525E-04  -2.069966265151376E-04  -2.122354719261149E-04
  -2.176068727397208E-04  -2.231141811978858E-04  -2.287608342299548E-04
  -2.345503555875885E-04  -2.404863580332541E-04  -2.465725455836335E-04
  -2.528127158093149E-04  -2.592107621921707E-04  -2.657706765418463E-04
  -2.724965514728375E-04  -2.793925829436531E-04  -2.864630728596052E-04
  -2.937124317408048E-04  -3.011451814569758E-04  -3.087659580307459E-04
  -3.165795145111063E-04  -3.245907239187763E-04  -3.328045822652525E-04
  -3.412262116473565E-04  -3.498608634191543E-04  -3.587139214431484E-04
  -3.677909054227013E-04  -3.770974743176918E-04  -3.866394298454476E-04
  -3.964227200690624E-04  -4.064534430752366E-04  -4.167378507438449E-04
  -4.272823526114852E-04  -4.380935198313023E-04  -4.491780892314622E-04
  -4.605429674746792E-04  -4.721952353212724E-04  -4.841421519982866E-04
  -4.963911596772543E-04  -5.089498880632654E-04  -5.218261590980455E-04
  -5.350279917798225E-04  -5.485636071028257E-04  -5.624414331193092E-04
  -5.766701101270961E-04  -5.912584959856648E-04  -6.062156715638999E-04
  -6.215509463226971E-04  -6.372738640356574E-04  -6.533942086512321E-04
  -6.699220102997009E-04  -6.868675514484810E-04  -7.042413732093317E-04
  -7.220542818010825E-04  -7.403173551716350E-04  -7.590419497830307E-04
  -7.782397075634854E-04  -7.979225630303694E-04  -8.181027505882141E-04
  -8.387928120058784E-04  -8.600056040771607E-04  -8.817543064691730E-04
  -9.040524297629292E-04  -9.269138236906840E-04  -9.503526855746412E-04
  -9.743835689717839E-04  -9.990213925296474E-04  -1.024281449057976E-03
  -1.050179414821307E-03  -1.076731359057619E-03  -1.103953753728313E-03
  -1.131863483504882E-03  -1.160477855997748E-03  -1.189814612232849E-03
  -1.219891937381677E-03  -1.250728471750591E-03  -1.282343322035324E-03
  -1.314756072846751E-03  -1.347986798514078E-03  -1.382056075171733E-03
  -1.416984993136403E-03  -1.452795169580723E-03  -1.489508761510284E-03
  -1.527148479050772E-03  -1.565737599052102E-03  -1.605299979016635E-03
  -1.645860071358617E-03  -1.687442938002148E-03  -1.730074265325115E-03
  -1.773780379456609E-03  -1.818588261935570E-03  -1.864525565738427E-03
  -1.911620631683710E-03  -1.959902505221712E-03  -2.009400953617373E-03
  -2.060146483534780E-03  -2.112170359031725E-03  -2.165504619972887E-03
  -2.220182100870447E-03  -2.276236450160859E-03  -2.333702149926886E-03
  -2.392614536073895E-03  -2.453009818969687E-03  -2.514925104557183E-03
  -2.578398415949375E-03  -2.643468715516190E-03  -2.710175927472852E-03
  -2.778560960979568E-03  -2.848665733762418E-03  -2.920533196265349E-03
  -2.994207356343448E-03  -3.069733304507537E-03  -3.147157239730373E-03
  -3.226526495824738E-03  -3.307889568403729E-03  -3.391296142433737E-03
  -3.476797120390529E-03  -3.564444651028915E-03  -3.654292158776589E-03
  -3.746394373762569E-03  -3.840807362490900E-03  -3.937588559170068E-03
  -4.036796797708650E-03  -4.138492344387711E-03  -4.242736931220259E-03
  -4.349593790008212E-03  -4.459127687107074E-03  -4.571404958908433E-03
  -4.686493548050381E-03  -4.804463040365562E-03  -4.925384702576707E-03
  -5.049331520748994E-03  -5.176378239508525E-03  -5.306601402035984E-03
  -5.440079390843973E-03  -5.576892469346680E-03  -5.717122824229665E-03
  -5.860854608627537E-03  -6.008173986116685E-03  -6.159169175529729E-03
  -6.313930496598018E-03  -6.472550416427750E-03  -6.635123596814756E-03
  -6.801746942402410E-03  -6.972519649686138E-03  -7.147543256867662E-03
  -7.326921694560840E-03  -7.510761337350311E-03  -7.699171056203232E-03
  -7.892262271732961E-03  -8.090149008313108E-03  -8.292947949038456E-03
  -8.500778491528440E-03  -8.713762804567435E-03  -8.932025885574315E-03
  -9.155695618892769E-03  -9.384902834891611E-03  -9.619781369862888E-03
  -9.860468126703685E-03  -1.010710313636519E-02  -1.035982962005106E-02
  -1.061879405214414E-02  -1.088414622383872E-02  -1.115603930745283E-02
  -1.143462992139190E-02  -1.172007819573312E-02  -1.201254783839601E-02
  -1.231220620186168E-02  -1.261922435040025E-02  -1.293377712776152E-02
  -1.325604322528103E-02  -1.358620525034890E-02  -1.392444979518498E-02
  -1.427096750585934E-02  -1.462595315149190E-02  -1.498960569356085E-02
  -1.536212835524352E-02  -1.574372869070791E-02  -1.613461865426779E-02
  -1.653501466930707E-02  -1.694513769687397E-02  -1.736521330383750E-02
  -1.779547173049233E-02  -1.823614795749038E-02  -1.868748177196924E-02
  -1.914971783274005E-02  -1.962310573438756E-02  -2.010790007012695E-02
  -2.060436049325212E-02  -2.111275177699930E-02  -2.163334387264076E-02
  -2.216641196561102E-02  -2.271223652945692E-02  -2.327110337739112E-02
  -2.384330371121488E-02  -2.442913416736417E-02  -2.502889685981802E-02
  -2.564289941959422E-02  -2.627145503054236E-02  -2.691488246112773E-02
  -2.757350609188443E-02  -2.824765593819758E-02  -2.893766766805727E-02
  -2.964388261440846E-02  -3.036664778170069E-02  -3.110631584622265E-02
  -3.186324514978442E-02  -3.263779968628913E-02  -3.343034908071286E-02
  -3.424126855998762E-02  -3.507093891525911E-02  -3.591974645496420E-02
  -3.678808294814758E-02  -3.767634555741033E-02  -3.858493676085334E-02
  -3.951426426235213E-02  -4.046474088946722E-02  -4.143678447826449E-02
  -4.243081774428837E-02  -4.344726813889587E-02  -4.448656769012911E-02
  -4.554915282726569E-02  -4.663546418815276E-02  -4.774594640839384E-02
  -4.888104789141855E-02  -5.004122055842934E-02  -5.122691957717846E-02
  -5.243860306848884E-02  -5.367673178939292E-02  -5.494176879172012E-02
  -5.623417905492448E-02  -5.755442909189940E-02  -5.890298652648420E-02
  -6.028031964132537E-02  -6.168689689470902E-02  -6.312318640494190E-02
  -6.458965540081116E-02  -6.608676963661173E-02  -6.761499277018837E-02
  -6.917478570239405E-02  -7.076660587633013E-02  -7.239090653468865E-02
  -7.404813593348129E-02  -7.573873651040186E-02  -7.746314400603181E-02
  -7.922178653606915E-02  -8.101508361272672E-02  -8.284344511342069E-02
  -8.470727019484706E-02  -8.660694615051973E-02  -8.854284720983521E-02
  -9.051533327671193E-02  -9.252474860585089E-02  -9.457142041466605E-02
  -9.665565742893781E-02  -9.877774836026412E-02  -1.009379603134032E-01
  -1.031365371216391E-01  -1.053736976083432E-01  -1.076496337729596E-01
  -1.099645088997122E-01  -1.123184555874077E-01  -1.147115736988059E-01
  -1.171439282281385E-01  -1.196155470854817E-01  -1.221264187968392E-01
  -1.246764901189482E-01  -1.272656635680133E-01  -1.298937948617792E-01
  -1.325606902745806E-01  -1.352661039052738E-01  -1.380097348582322E-01
  -1.407912243379064E-01  -1.436101526577941E-01  -1.464660361650422E-01
  -1.493583240823213E-01  -1.522863952690590E-01  -1.552495549046098E-01
  -1.582470310964718E-01  -1.612779714172299E-01  -1.643414393745319E-01
  -1.674364108190609E-01  -1.705617702961928E-01  -1.737163073477876E-01
  -1.768987127713869E-01  -1.801075748449674E-01  -1.833413755263275E-01
  -1.865984866371808E-01  -1.898771660430759E-01  -1.931755538413744E-01
  -1.964916685706958E-01  -1.998234034564663E-01  -2.031685227085123E-01
  -2.065246578879970E-01  -2.098893043624173E-01  -2.132598178688656E-01
  -2.166334112072960E-01  -2.200071510871330E-01  -2.233779551522090E-01
  -2.267425892107106E-01  -2.300976646985606E-01  -2.334396364064309E-01
  -2.367648005023950E-01  -2.400692928840550E-01  -2.433490878958099E-01
  -2.465999974487847E-01  -2.498176705827496E-01  -2.529975935111661E-01
  -2.561350901922438E-01  -2.592253234705797E-01  -2.622632968355602E-01
  -2.652438568441975E-01  -2.681616962574400E-01  -2.710113579401990E-01
  -2.737872395763434E-01  -2.764835992507147E-01  -2.790945619507266E-01
  -2.816141270403625E-01  -2.840361767592707E-01  -2.863544857991611E-01
  -2.885627320088007E-01  -2.906545082774937E-01  -2.926233356450108E-01
  -2.944626776834180E-01  -2.961659561930928E-01  -2.977265682513727E-01
  -2.991379046476625E-01  -3.003933697333991E-01  -3.014864027089719E-01
  -3.024105003624470E-01  -3.031592412667156E-01  -3.037263114323941E-01
  -3.041055314034212E-01  -3.042908847707624E-01  -3.042765480669061E-01
  -3.040569219898975E-01  -3.036266638904655E-01  -3.029807214393602E-01
  -3.021143673743258E-01  -3.010232352072135E-01  -2.997033557516222E-01
  -2.981511943102098E-01  -2.963636883385198E-01  -2.943382853789376E-01
  -2.920729810343680E-01  -2.895663567265734E-01  -2.868176169590727E-01
  -2.838266257792922E-01  -2.805939421095948E-01  -2.771208535922435E-01
  -2.734094085696260E-01  -2.694624457986738E-01  -2.652836214777839E-01
  -2.608774331462464E-01  -2.562492400008386E-01  -2.514052791623707E-01
  -2.463526774174112E-01  -2.410994579577359E-01  -2.356545416430866E-01
  -2.300277423223604E-01  -2.242297557650736E-01  -2.182721417797809E-01
  -2.121672991296998E-01  -2.059284328988776E-01  -1.995695140155262E-01
  -1.931052307030504E-01  -1.865509317044156E-01  -1.799225612119039E-01
  -1.732365855321514E-01  -1.665099116254091E-01  -1.597597977776016E-01
  -1.530037567932569E-01  -1.462594522352589E-01  -1.395445883819921E-01
  -1.328767947214590E-01  -1.262735059524077E-01  -1.197518386109915E-01
  -1.133284655836737E-01  -1.070194898981074E-01  -1.008403192979125E-01
  -9.480554319812617E-02  -8.892881367858625E-02  -8.322273219467438E-02
  -7.769874366031063E-02  -7.236703947797737E-02  -6.723647094548765E-02
  -6.231447425007797E-02  -5.760700795791229E-02  -5.311850351279702E-02
  -4.885182876427809E-02  -4.480826394621172E-02  -4.098748881864520E-02
  -3.738757886718107E-02  -3.400500752762382E-02  -3.083465037659319E-02
  -2.786978611340231E-02  -2.510208797374700E-02  -2.252159798795204E-02
  -2.011667526048806E-02  -1.787390824754420E-02  -1.578052404262076E-02
  -1.383254256063626E-02  -1.202825215309544E-02  -1.036579705084151E-02
  -8.843133192162123E-03  -7.457975805651884E-03  -6.207738801672358E-03
  -5.089466146553812E-03  -4.099755522272375E-03  -3.234674715741015E-03
  -2.489675633479349E-03  -1.859510152584787E-03  -1.338119747180899E-03
  -9.185083649465575E-04  -5.926549379788870E-04  -3.513959023871971E-04
  -1.843182227079243E-04  -7.965260621867198E-05  -2.417147772382222E-05
  -3.093871904780165E-06   0.000000000000000E+00   0.000000000000000E+00
   0.000000000000000E+00   0.000000000000000E+00   0.000000000000000E+00
   0.000000000000000E+00   0.000000000000000E+00   0.000000000000000E+00
   0.000000000000000E+00   0.000000000000000E+00   0.000000000000000E+00
   0.000000000000000E+00   0.000000000000000E+00   0.000000000000000E+00
   0.000000000000000E+00   0.000000000000000E+00   0.000000000000000E+00
   0.000000000000000E+00   0.000000000000000E+00   0.000000000000000E+00
   0.000000000000000E+00   0.000000000000000E+00   0.000000000000000E+00
   0.000000000000000E+00   0.000000000000000E+00   0.000000000000000E+00
   0.000000000000000E+00   0.000000000000000E+00   0.000000000000000E+00
   0.000000000000000E+00   0.000000000000000E+00   0.000000000000000E+00
   0.000000000000000E+00   0.000000000000000E+00   0.000000000000000E+00
   0.000000000000000E+00   0.000000000000000E+00   0.000000000000000E+00
   0.000000000000000E+00   0.000000000000000E+00   0.000000000000000E+00
   0.000000000000000E+00   0.000000000000000E+00   0.000000000000000E+00
   0.000000000000000E+00   0.000000000000000E+00   0.000000000000000E+00
   0.000000000000000E+00   0.000000000000000E+00   0.000000000000000E+00
   0.000000000000000E+00   0.000000000000000E+00   0.000000000000000E+00
   0.000000000000000E+00   0.000000000000000E+00   0.000000000000000E+00
   0.000000000000000E+00   0.000000000000000E+00   0.000000000000000E+00
   0.000000000000000E+00   0.000000000000000E+00   0.000000000000000E+00
   0.000000000000000E+00   0.000000000000000E+00   0.000000000000000E+00
   0.000000000000000E+00   0.000000000000000E+00   0.000000000000000E+00
   0.000000000000000E+00   0.000000000000000E+00   0.000000000000000E+00
   0.000000000000000E+00   0.000000000000000E+00   0.000000000000000E+00
   0.000000000000000E+00   0.000000000000000E+00   0.000000000000000E+00
   0.000000000000000E+00   0.000000000000000E+00   0.000000000000000E+00
   0.000000000000000E+00   0.000000000000000E+00   0.000000000000000E+00
   0.000000000000000E+00   0.000000000000000E+00   0.000000000000000E+00
   0.000000000000000E+00   0.000000000000000E+00   0.000000000000000E+00
   0.000000000000000E+00   0.000000000000000E+00   0.000000000000000E+00
   0.000000000000000E+00   0.000000000000000E+00   0.000000000000000E+00
   0.000000000000000E+00   0.000000000000000E+00   0.000000000000000E+00
   0.000000000000000E+00   0.000000000000000E+00   0.000000000000000E+00
   0.000000000000000E+00   0.000000000000000E+00   0.000000000000000E+00
   0.000000000000000E+00   0.000000000000000E+00   0.000000000000000E+00
   0.000000000000000E+00   0.000000000000000E+00   0.000000000000000E+00
   0.000000000000000E+00   0.000000000000000E+00   0.000000000000000E+00
   0.000000000000000E+00   0.000000000000000E+00   0.000000000000000E+00
   0.000000000000000E+00   0.000000000000000E+00   0.000000000000000E+00
   0.000000000000000E+00   0.000000000000000E+00   0.000000000000000E+00
   0.000000000000000E+00   0.000000000000000E+00   0.000000000000000E+00
   0.000000000000000E+00   0.000000000000000E+00   0.000000000000000E+00
   0.000000000000000E+00   0.000000000000000E+00   0.000000000000000E+00
   0.000000000000000E+00   0.000000000000000E+00   0.000000000000000E+00
   0.000000000000000E+00   0.000000000000000E+00   0.000000000000000E+00
   0.000000000000000E+00   0.000000000000000E+00   0.000000000000000E+00
   0.000000000000000E+00   0.000000000000000E+00   0.000000000000000E+00
   0.000000000000000E+00   0.000000000000000E+00   0.000000000000000E+00
   0.000000000000000E+00   0.000000000000000E+00   0.000000000000000E+00
   0.000000000000000E+00   0.000000000000000E+00   0.000000000000000E+00
   0.000000000000000E+00   0.000000000000000E+00   0.000000000000000E+00
   0.000000000000000E+00   0.000000000000000E+00   0.000000000000000E+00
   0.000000000000000E+00   0.000000000000000E+00   0.000000000000000E+00
   0.000000000000000E+00   0.000000000000000E+00   0.000000000000000E+00
   0.000000000000000E+00   0.000000000000000E+00   0.000000000000000E+00
   0.000000000000000E+00   0.000000000000000E+00   0.000000000000000E+00
   0.000000000000000E+00   0.000000000000000E+00   0.000000000000000E+00
   0.000000000000000E+00   0.000000000000000E+00   0.000000000000000E+00
   0.000000000000000E+00   0.000000000000000E+00   0.000000000000000E+00
   0.000000000000000E+00   0.000000000000000E+00   0.000000000000000E+00
   0.000000000000000E+00   0.000000000000000E+00   0.000000000000000E+00
   0.000000000000000E+00   0.000000000000000E+00   0.000000000000000E+00
   0.000000000000000E+00   0.000000000000000E+00   0.000000000000000E+00
   0.000000000000000E+00   0.000000000000000E+00   0.000000000000000E+00
   0.000000000000000E+00   0.000000000000000E+00   0.000000000000000E+00
   0.000000000000000E+00   0.000000000000000E+00   0.000000000000000E+00
   0.000000000000000E+00   0.000000000000000E+00   0.000000000000000E+00
   0.000000000000000E+00   0.000000000000000E+00   0.000000000000000E+00
   0.000000000000000E+00   0.000000000000000E+00   0.000000000000000E+00
   0.000000000000000E+00   0.000000000000000E+00   0.000000000000000E+00
   0.000000000000000E+00   0.000000000000000E+00   0.000000000000000E+00
   0.000000000000000E+00   0.000000000000000E+00   0.000000000000000E+00
   0.000000000000000E+00   0.000000000000000E+00   0.000000000000000E+00
   0.000000000000000E+00   0.000000000000000E+00   0.000000000000000E+00
   0.000000000000000E+00   0.000000000000000E+00   0.000000000000000E+00
   0.000000000000000E+00   0.000000000000000E+00   0.000000000000000E+00
   0.000000000000000E+00   0.000000000000000E+00   0.000000000000000E+00
   0.000000000000000E+00   0.000000000000000E+00   0.000000000000000E+00
   0.000000000000000E+00   0.000000000000000E+00   0.000000000000000E+00
   0.000000000000000E+00   0.000000000000000E+00   0.000000000000000E+00
   0.000000000000000E+00   0.000000000000000E+00   0.000000000000000E+00
   0.000000000000000E+00   0.000000000000000E+00   0.000000000000000E+00
   0.000000000000000E+00   0.000000000000000E+00   0.000000000000000E+00
   0.000000000000000E+00   0.000000000000000E+00   0.000000000000000E+00
   0.000000000000000E+00   0.000000000000000E+00   0.000000000000000E+00
   0.000000000000000E+00   0.000000000000000E+00   0.000000000000000E+00
   0.000000000000000E+00   0.000000000000000E+00   0.000000000000000E+00
   0.000000000000000E+00   0.000000000000000E+00   0.000000000000000E+00
   0.000000000000000E+00   0.000000000000000E+00   0.000000000000000E+00
   0.000000000000000E+00   0.000000000000000E+00   0.000000000000000E+00
   0.000000000000000E+00   0.000000000000000E+00   0.000000000000000E+00
   0.000000000000000E+00   0.000000000000000E+00   0.000000000000000E+00
   0.000000000000000E+00   0.000000000000000E+00   0.000000000000000E+00
   0.000000000000000E+00   0.000000000000000E+00   0.000000000000000E+00
   0.000000000000000E+00   0.000000000000000E+00   0.000000000000000E+00
   0.000000000000000E+00   0.000000000000000E+00   0.000000000000000E+00
   0.000000000000000E+00   0.000000000000000E+00   0.000000000000000E+00
   0.000000000000000E+00   0.000000000000000E+00   0.000000000000000E+00
   0.000000000000000E+00   0.000000000000000E+00   0.000000000000000E+00
   0.000000000000000E+00   0.000000000000000E+00   0.000000000000000E+00
   0.000000000000000E+00   0.000000000000000E+00   0.000000000000000E+00
   0.000000000000000E+00   0.000000000000000E+00   0.000000000000000E+00
   0.000000000000000E+00   0.000000000000000E+00   0.000000000000000E+00
   0.000000000000000E+00   0.000000000000000E+00   0.000000000000000E+00
   0.000000000000000E+00   0.000000000000000E+00   0.000000000000000E+00
   0.000000000000000E+00   0.000000000000000E+00   0.000000000000000E+00
   0.000000000000000E+00   0.000000000000000E+00   0.000000000000000E+00
   0.000000000000000E+00   0.000000000000000E+00   0.000000000000000E+00
   0.000000000000000E+00   0.000000000000000E+00   0.000000000000000E+00
   0.000000000000000E+00   0.000000000000000E+00   0.000000000000000E+00
   0.000000000000000E+00   0.000000000000000E+00   0.000000000000000E+00
   0.000000000000000E+00   0.000000000000000E+00   0.000000000000000E+00
   0.000000000000000E+00   0.000000000000000E+00   0.000000000000000E+00
   0.000000000000000E+00   0.000000000000000E+00   0.000000000000000E+00
   0.000000000000000E+00   0.000000000000000E+00   0.000000000000000E+00
      </PP_QIJL.1.1.0>
      <PP_QIJL.1.2.0 first_index="1" second_index="2" composite_index="2" angular_momentum="0" size="1095">
  -4.606079627183399E-08  -4.722683080369236E-08  -4.842238363630153E-08
  -4.964820202879962E-08  -5.090505215726970E-08  -5.219371959362363E-08
  -5.351500979660939E-08  -5.486974861524822E-08  -5.625878280501600E-08
  -5.768298055709250E-08  -5.914323204100754E-08  -6.064044996102514E-08
  -6.217557012661226E-08  -6.374955203734886E-08  -6.536337948264565E-08
  -6.701806115664239E-08  -6.871463128867377E-08  -7.045415028969476E-08
  -7.223770541507039E-08  -7.406641144414466E-08  -7.594141137701149E-08
  -7.786387714892568E-08  -7.983501036279863E-08  -8.185604304023733E-08
  -8.392823839159627E-08  -8.605289160552217E-08  -8.823133065848735E-08
  -9.046491714481570E-08  -9.275504712772081E-08  -9.510315201188890E-08
  -9.751069943814973E-08  -9.997919420079759E-08  -1.025101791881334E-07
  -1.051052363468169E-07  -1.077659876706321E-07  -1.104940962142815E-07
  -1.132912671328466E-07  -1.161592487475608E-07  -1.190998336385635E-07
  -1.221148597653168E-07  -1.252062116153847E-07  -1.283758213822949E-07
  -1.316256701732175E-07  -1.349577892472163E-07  -1.383742612848467E-07
  -1.418772216898917E-07  -1.454688599240540E-07  -1.491514208754337E-07
  -1.529272062616494E-07  -1.567985760684809E-07  -1.607679500249279E-07
  -1.648378091156121E-07  -1.690106971314658E-07  -1.732892222596739E-07
  -1.776760587138686E-07  -1.821739484055884E-07  -1.867857026580529E-07
  -1.915142039633206E-07  -1.963624077839287E-07  -2.013333444001429E-07
  -2.064301208039671E-07  -2.116559226411024E-07  -2.170140162020657E-07
  -2.225077504637129E-07  -2.281405591824447E-07  -2.339159630403981E-07
  -2.398375718459720E-07  -2.459090867900573E-07  -2.521343027593824E-07
  -2.585171107084237E-07  -2.650615000913557E-07  -2.717715613555698E-07
  -2.786514884983144E-07  -2.857055816880553E-07  -2.929382499521985E-07
  -3.003540139328459E-07  -3.079575087123190E-07  -3.157534867102063E-07
  -3.237468206537497E-07  -3.319425066234278E-07  -3.403456671756312E-07
  -3.489615545443952E-07  -3.577955539241779E-07  -3.668531868357437E-07
  -3.761401145772538E-07  -3.856621417627158E-07  -3.954252199500128E-07
  -4.054354513607735E-07  -4.156990926944073E-07  -4.262225590386960E-07
  -4.370124278793731E-07  -4.480754432112096E-07  -4.594185197531703E-07
  -4.710487472702716E-07  -4.829733950048516E-07  -4.951999162200067E-07
  -5.077359528580531E-07  -5.205893403169085E-07  -5.337681123473889E-07
  -5.472805060744801E-07  -5.611349671457119E-07  -5.753401550098722E-07
  -5.899049483293391E-07  -6.048384505294303E-07  -6.201499954882303E-07
  -6.358491533704465E-07  -6.519457366089527E-07  -6.684498060377484E-07
  -6.853716771801725E-07  -7.027219266962990E-07  -7.205113989935396E-07
  -7.387512130045949E-07  -7.574527691369833E-07  -7.766277563984901E-07
  -7.962881597029993E-07  -8.164462673612522E-07  -8.371146787612459E-07
  -8.583063122430440E-07  -8.800344131729342E-07  -9.023125622219828E-07
  -9.251546838541395E-07  -9.485750550292253E-07  -9.725883141262191E-07
  -9.972094700924352E-07  -1.022453911824304E-06  -1.048337417785603E-06
  -1.074876165869187E-06  -1.102086743508338E-06  -1.129986158044081E-06
  -1.158591847354947E-06  -1.187921690755787E-06  -1.217994020172507E-06
  -1.248827631599665E-06  -1.280441796848099E-06  -1.312856275589947E-06
  -1.346091327708544E-06  -1.380167725960967E-06  -1.415106768961097E-06
  -1.450930294491339E-06  -1.487660693151310E-06  -1.525320922352002E-06
  -1.563934520664215E-06  -1.603525622530180E-06  -1.644118973347581E-06
  -1.685739944935425E-06  -1.728414551391368E-06  -1.772169465350473E-06
  -1.817032034655519E-06  -1.863030299449274E-06  -1.910193009699458E-06
  -1.958549643167275E-06  -2.008130423830812E-06  -2.058966340774783E-06
  -2.111089167558411E-06  -2.164531482073599E-06  -2.219326686905716E-06
  -2.275509030209813E-06  -2.333113627115259E-06  -2.392176481672165E-06
  -2.452734509353363E-06  -2.514825560125918E-06  -2.578488442106678E-06
  -2.643762945816577E-06  -2.710689869048866E-06  -2.779311042366848E-06
  -2.849669355246933E-06  -2.921808782883543E-06  -2.995774413672387E-06
  -3.071612477389453E-06  -3.149370374083272E-06  -3.229096703698401E-06
  -3.310841296448869E-06  -3.394655243960275E-06  -3.480590931200230E-06
  -3.568702069216990E-06  -3.659043728706658E-06  -3.751672374430167E-06
  -3.846645900501229E-06  -3.944023666567554E-06  -4.043866534907839E-06
  -4.146236908467616E-06  -4.251198769857975E-06  -4.358817721341183E-06
  -4.469161025828476E-06  -4.582297648915500E-06  -4.698298301981555E-06
  -4.817235486379901E-06  -4.939183538746289E-06  -5.064218677454363E-06
  -5.192419050246850E-06  -5.323864783072104E-06  -5.458638030156930E-06
  -5.596823025346439E-06  -5.738506134743443E-06  -5.883775910680066E-06
  -6.032723147055171E-06  -6.185440936072525E-06  -6.342024726414694E-06
  -6.502572382889329E-06  -6.667184247585023E-06  -6.835963202574674E-06
  -7.009014734206063E-06  -7.186446999019114E-06  -7.368370891331562E-06
  -7.554900112534993E-06  -7.746151242144371E-06  -7.942243810645888E-06
  -8.143300374188052E-06  -8.349446591163058E-06  -8.560811300726200E-06
  -8.777526603301995E-06  -8.999727943127956E-06  -9.227554192886795E-06
  -9.461147740480438E-06  -9.700654577999858E-06  -9.946224392946010E-06
  -1.019801066175944E-05  -1.045617074571614E-05  -1.072086598925018E-05
  -1.099226182076429E-05  -1.127052785599085E-05  -1.155583800396884E-05
  -1.184837057570165E-05  -1.214830839556454E-05  -1.245583891553090E-05
  -1.277115433228825E-05  -1.309445170731795E-05  -1.342593309001260E-05
  -1.376580564390845E-05  -1.411428177611174E-05  -1.447157926999898E-05
  -1.483792142127515E-05  -1.521353717747329E-05  -1.559866128098369E-05
  -1.599353441570142E-05  -1.639840335738323E-05  -1.681352112780887E-05
  -1.723914715284131E-05  -1.767554742448582E-05  -1.812299466704851E-05
  -1.858176850749730E-05  -1.905215565013305E-05  -1.953445005567795E-05
  -2.002895312489431E-05  -2.053597388684753E-05  -2.105582919193050E-05
  -2.158884390977041E-05  -2.213535113214044E-05  -2.269569238100361E-05
  -2.327021782181803E-05  -2.385928648223644E-05  -2.446326647633664E-05
  -2.508253523452211E-05  -2.571747973923641E-05  -2.636849676663818E-05
  -2.703599313438686E-05  -2.772038595569423E-05  -2.842210289979910E-05
  -2.914158245902829E-05  -2.987927422260955E-05  -3.063563915740697E-05
  -3.141114989575422E-05  -3.220629103056396E-05  -3.302155941789790E-05
  -3.385746448718551E-05  -3.471452855928406E-05  -3.559328717257884E-05
  -3.649428941732545E-05  -3.741809827844290E-05  -3.836529098697054E-05
  -3.933645938040709E-05  -4.033221027215653E-05  -4.135316583030997E-05
  -4.239996396599925E-05  -4.347325873156404E-05  -4.457372072877910E-05
  -4.570203752739651E-05  -4.685891409426173E-05  -4.804507323327116E-05
  -4.926125603644433E-05  -5.050822234638983E-05  -5.178675123045407E-05
  -5.309764146684534E-05  -5.444171204303636E-05  -5.581980266675425E-05
  -5.723277428987446E-05  -5.868150964554513E-05  -6.016691379887319E-05
  -6.168991471151565E-05  -6.325146382052525E-05  -6.485253663180885E-05
  -6.649413332856819E-05  -6.817727939509780E-05  -6.990302625632867E-05
  -7.167245193351283E-05  -7.348666171645449E-05  -7.534678885270574E-05
  -7.725399525415094E-05  -7.920947222141963E-05  -8.121444118657474E-05
  -8.327015447453526E-05  -8.537789608370583E-05  -8.753898248629402E-05
  -8.975476344881119E-05  -9.202662287326390E-05  -9.435597965955439E-05
  -9.674428858962441E-05  -9.919304123388645E-05  -1.017037668805032E-04
  -1.042780334880883E-04  -1.069174486624144E-04  -1.096236606577338E-04
  -1.123983594033255E-04  -1.152432775559035E-04  -1.181601915785336E-04
  -1.211509228467224E-04  -1.242173387823608E-04  -1.273613540162174E-04
  -1.305849315796989E-04  -1.338900841266087E-04  -1.372788751856537E-04
  -1.407534204444707E-04  -1.443158890659584E-04  -1.479685050377239E-04
  -1.517135485554708E-04  -1.555533574411779E-04  -1.594903285969345E-04
  -1.635269194953264E-04  -1.676656497072825E-04  -1.719091024683163E-04
  -1.762599262841224E-04  -1.807208365765041E-04  -1.852946173706435E-04
  -1.899841230247388E-04  -1.947922800030655E-04  -1.997220886935451E-04
  -2.047766252709200E-04  -2.099590436066808E-04  -2.152725772268972E-04
  -2.207205413191478E-04  -2.263063347897704E-04  -2.320334423726712E-04
  -2.379054367909866E-04  -2.439259809728948E-04  -2.500988303229269E-04
  -2.564278350501504E-04  -2.629169425546275E-04  -2.695701998735983E-04
  -2.763917561888588E-04  -2.833858653968477E-04  -2.905568887429932E-04
  -2.979092975218959E-04  -3.054476758449849E-04  -3.131767234772978E-04
  -3.211012587450927E-04  -3.292262215160351E-04  -3.375566762537378E-04
  -3.460978151484903E-04  -3.548549613260396E-04  -3.638335721363411E-04
  -3.730392425242405E-04  -3.824777084840847E-04  -3.921548506003286E-04
  -4.020766976762275E-04  -4.122494304527728E-04  -4.226793854200725E-04
  -4.333730587234227E-04  -4.443371101663881E-04  -4.555783673132381E-04
  -4.671038296931618E-04  -4.789206731087305E-04  -4.910362540511253E-04
  -5.034581142247334E-04  -5.161939851837407E-04  -5.292517930834358E-04
  -5.426396635489948E-04  -5.563659266645634E-04  -5.704391220855511E-04
  -5.848680042770826E-04  -5.996615478816400E-04  -6.148289532189955E-04
  -6.303796519215829E-04  -6.463233127085683E-04  -6.626698473019060E-04
  -6.794294164877731E-04  -6.966124363268328E-04  -7.142295845168651E-04
  -7.322918069113588E-04  -7.508103241977742E-04  -7.697966387392277E-04
  -7.892625415834533E-04  -8.092201196429796E-04  -8.296817630505198E-04
  -8.506601726937013E-04  -8.721683679333051E-04  -8.942196945092989E-04
  -9.168278326390331E-04  -9.400068053120428E-04  -9.637709867860235E-04
  -9.881351112886129E-04  -1.013114281929712E-03  -1.038723979829194E-03
  -1.064980073464904E-03  -1.091898828246008E-03  -1.119496916316801E-03
  -1.147791426596197E-03  -1.176799875058261E-03  -1.206540215259160E-03
  -1.237030849116131E-03  -1.268290637944064E-03  -1.300338913755451E-03
  -1.333195490829581E-03  -1.366880677556880E-03  -1.401415288564528E-03
  -1.436820657129484E-03  -1.473118647885203E-03  -1.510331669828462E-03
  -1.548482689632741E-03  -1.587595245274827E-03  -1.627693459981313E-03
  -1.668802056501832E-03  -1.710946371715970E-03  -1.754152371580854E-03
  -1.798446666426626E-03  -1.843856526607003E-03  -1.890409898512306E-03
  -1.938135420952430E-03  -1.987062441917266E-03  -2.037221035722320E-03
  -2.088642020547225E-03  -2.141356976375033E-03  -2.195398263340253E-03
  -2.250799040493635E-03  -2.307593284991874E-03  -2.365815811720437E-03
  -2.425502293357786E-03  -2.486689280889413E-03  -2.549414224580053E-03
  -2.613715495412667E-03  -2.679632407002703E-03  -2.747205237996264E-03
  -2.816475254960883E-03  -2.887484735777530E-03  -2.960276993542694E-03
  -3.034896400989210E-03  -3.111388415434640E-03  -3.189799604266016E-03
  -3.270177670969607E-03  -3.352571481714603E-03  -3.437031092499325E-03
  -3.523607776868667E-03  -3.612354054211443E-03  -3.703323718646042E-03
  -3.796571868503003E-03  -3.892154936412760E-03  -3.990130720006774E-03
  -4.090558413240198E-03  -4.193498638343859E-03  -4.299013478413403E-03
  -4.407166510643041E-03  -4.518022840211136E-03  -4.631649134824743E-03
  -4.748113659929632E-03  -4.867486314592369E-03  -4.989838668060362E-03
  -5.115243997005535E-03  -5.243777323456901E-03  -5.375515453426637E-03
  -5.510537016234105E-03  -5.648922504531343E-03  -5.790754315033210E-03
  -5.936116789954672E-03  -6.085096259156857E-03  -6.237781083003113E-03
  -6.394261695925114E-03  -6.554630650698452E-03  -6.718982663426214E-03
  -6.887414659227771E-03  -7.060025818629459E-03  -7.236917624652192E-03
  -7.418193910590083E-03  -7.603960908472950E-03  -7.794327298203809E-03
  -7.989404257361533E-03  -8.189305511656822E-03  -8.394147386028165E-03
  -8.604048856362814E-03  -8.819131601825486E-03  -9.039520057776144E-03
  -9.265341469255454E-03  -9.496725945014691E-03  -9.733806512064345E-03
  -9.976719170712928E-03  -1.022560295006532E-02  -1.048059996394661E-02
  -1.074185546721480E-02  -1.100951791242225E-02  -1.128373900678258E-02
  -1.156467376939639E-02  -1.185248058868482E-02  -1.214732127997675E-02
  -1.244936114319093E-02  -1.275876902054967E-02  -1.307571735425681E-02
  -1.340038224406722E-02  -1.373294350467017E-02  -1.407358472280367E-02
  -1.442249331401074E-02  -1.477986057894338E-02  -1.514588175911297E-02
  -1.552075609197964E-02  -1.590468686526642E-02  -1.629788147037594E-02
  -1.670055145478106E-02  -1.711291257325153E-02  -1.753518483777134E-02
  -1.796759256599236E-02  -1.841036442806016E-02  -1.886373349163930E-02
  -1.932793726495431E-02  -1.980321773765269E-02  -2.028982141928476E-02
  -2.078799937518388E-02  -2.129800725951873E-02  -2.182010534527620E-02
  -2.235455855092073E-02  -2.290163646346223E-02  -2.346161335764979E-02
  -2.403476821099456E-02  -2.462138471430861E-02  -2.522175127743089E-02
  -2.583616102979473E-02  -2.646491181547298E-02  -2.710830618232002E-02
  -2.776665136480951E-02  -2.844025926014820E-02  -2.912944639722518E-02
  -2.983453389793446E-02  -3.055584743038822E-02  -3.129371715351359E-02
  -3.204847765250363E-02  -3.282046786456858E-02  -3.361003099440751E-02
  -3.441751441879638E-02  -3.524326957965990E-02  -3.608765186496826E-02
  -3.695102047677132E-02  -3.783373828565260E-02  -3.873617167085752E-02
  -3.965869034531769E-02  -4.060166716476254E-02  -4.156547792007743E-02
  -4.255050111203346E-02  -4.355711770748237E-02  -4.458571087607385E-02
  -4.563666570651886E-02  -4.671036890138726E-02  -4.780720844939088E-02
  -4.892757327406924E-02  -5.007185285775671E-02  -5.124043683967353E-02
  -5.243371458694752E-02  -5.365207473733408E-02  -5.489590471236822E-02
  -5.616559019964380E-02  -5.746151460287971E-02  -5.878405845839867E-02
  -6.013359881660667E-02  -6.151050858703193E-02  -6.291515584544594E-02
  -6.434790310156085E-02  -6.580910652576813E-02  -6.729911513335482E-02
  -6.881826992461312E-02  -7.036690297923320E-02  -7.194533650335336E-02
  -7.355388182762697E-02  -7.519283835465207E-02  -7.686249245410781E-02
  -7.856311630393656E-02  -8.029496667591751E-02  -8.205828366398800E-02
  -8.385328935368466E-02  -8.568018643110541E-02  -8.753915672982249E-02
  -8.943035971422326E-02  -9.135393089780579E-02  -9.330998019501911E-02
  -9.529859020531718E-02  -9.731981442817884E-02  -9.937367540795057E-02
  -1.014601628074862E-01  -1.035792314096870E-01  -1.057307990462020E-01
  -1.079147444527108E-01  -1.101309050504049E-01  -1.123790746534910E-01
  -1.146590011027741E-01  -1.169703838256363E-01  -1.193128713230093E-01
  -1.216860585842501E-01  -1.240894844311723E-01  -1.265226287928504E-01
  -1.289849099132273E-01  -1.314756814939856E-01  -1.339942297756230E-01
  -1.365397705601842E-01  -1.391114461796516E-01  -1.417083224145969E-01
  -1.443293853683285E-01  -1.469735383024555E-01  -1.496395984405200E-01
  -1.523262937471222E-01  -1.550322596908000E-01  -1.577560359997950E-01
  -1.604960634207742E-01  -1.632506804915591E-01  -1.660181203399513E-01
  -1.687965075218402E-01  -1.715838549129209E-01  -1.743780606695546E-01
  -1.771769052755570E-01  -1.799780486930054E-01  -1.827790276365137E-01
  -1.855772529918267E-01  -1.883700074010358E-01  -1.911544430382058E-01
  -1.939275796007279E-01  -1.966863025432736E-01  -1.994273615827989E-01
  -2.021473695046459E-01  -2.048428013013908E-01  -2.075099936776832E-01
  -2.101451449559074E-01  -2.127443154190466E-01  -2.153034281286415E-01
  -2.178182702571815E-01  -2.202844949756368E-01  -2.226976239381057E-01
  -2.250530504066960E-01  -2.273460430607551E-01  -2.295717505353848E-01
  -2.317252067347847E-01  -2.338013369663598E-01  -2.357949649416120E-01
  -2.377008206896481E-01  -2.395135494285794E-01  -2.412277214391354E-01
  -2.428378429834533E-01  -2.443383683101281E-01  -2.457237127842327E-01
  -2.469882671780447E-01  -2.481264131546144E-01  -2.491325399720312E-01
  -2.500010624312208E-01  -2.507264400842963E-01  -2.513031977138324E-01
  -2.517259470858823E-01  -2.519894099710644E-01  -2.520884424185648E-01
  -2.520180602573894E-01  -2.517734657876211E-01  -2.513500756117664E-01
  -2.507435495424905E-01  -2.499498205081376E-01  -2.489651253614067E-01
  -2.477860364794388E-01  -2.464094940253879E-01  -2.448328387223682E-01
  -2.430538449705576E-01  -2.410707541173064E-01  -2.388823076684750E-01
  -2.364877802070767E-01  -2.338870117628039E-01  -2.310804393534379E-01
  -2.280691273967078E-01  -2.248547966692198E-01  -2.214398514679736E-01
  -2.178274046100832E-01  -2.140212998881369E-01  -2.100261315825834E-01
  -2.058472606192014E-01  -2.014908269496972E-01  -1.969637577273201E-01
  -1.922737708478685E-01  -1.874293734301593E-01  -1.824398548197276E-01
  -1.773152737159481E-01  -1.720664390465655E-01  -1.667048842456138E-01
  -1.612428346314597E-01  -1.556931676318719E-01  -1.500693656631718E-01
  -1.443854615409340E-01  -1.386559763808166E-01  -1.328958500398017E-01
  -1.271203642503818E-01  -1.213450587125669E-01  -1.155856405301831E-01
  -1.098578875077891E-01  -1.041775459609396E-01  -9.856022383351785E-02
  -9.302128005888712E-02  -8.757571124337665E-02  -8.223803688752955E-02
  -7.702218448795226E-02  -7.194137597551527E-02  -6.700801703817449E-02
  -6.223359094226073E-02  -5.762855849762522E-02  -5.320226580169804E-02
  -4.896286133710324E-02  -4.491722387845005E-02  -4.107090247744420E-02
  -3.742806953308098E-02  -3.399148760706750E-02  -3.076249020648222E-02
  -2.774097621989375E-02  -2.492541705537472E-02  -2.231287478727597E-02
  -1.989902877443782E-02  -1.767820727093462E-02  -1.564341952139642E-02
  -1.378638273197397E-02  -1.209753715738757E-02  -1.056604137388776E-02
  -9.179738655671794E-03  -7.925084285861857E-03  -6.788948387592975E-03
  -5.764755879361982E-03  -4.847541859582527E-03  -4.032150247421151E-03
  -3.313233415724093E-03  -2.685252448338171E-03  -2.142478993380881E-03
  -1.678999847349261E-03  -1.288725570977589E-03  -9.654046077449685E-04
  -7.026459803871066E-04  -4.939531004098385E-04  -3.327607918493791E-04
  -2.124819674708678E-04  -1.265835430320217E-04  -6.867003975577490E-05
  -3.259025020915796E-05  -1.256521854688109E-05  -3.340610666313637E-06
  -3.655609472075216E-07   0.000000000000000E+00   0.000000000000000E+00
   0.000000000000000E+00   0.000000000000000E+00   0.000000000000000E+00
   0.000000000000000E+00   0.000000000000000E+00   0.000000000000000E+00
   0.000000000000000E+00   0.000000000000000E+00   0.000000000000000E+00
   0.000000000000000E+00   0.000000000000000E+00   0.000000000000000E+00
   0.000000000000000E+00   0.000000000000000E+00   0.000000000000000E+00
   0.000000000000000E+00   0.000000000000000E+00   0.000000000000000E+00
   0.000000000000000E+00   0.000000000000000E+00   0.000000000000000E+00
   0.000000000000000E+00   0.000000000000000E+00   0.000000000000000E+00
   0.000000000000000E+00   0.000000000000000E+00   0.000000000000000E+00
   0.000000000000000E+00   0.000000000000000E+00   0.000000000000000E+00
   0.000000000000000E+00   0.000000000000000E+00   0.000000000000000E+00
   0.000000000000000E+00   0.000000000000000E+00   0.000000000000000E+00
   0.000000000000000E+00   0.000000000000000E+00   0.000000000000000E+00
   0.000000000000000E+00   0.000000000000000E+00   0.000000000000000E+00
   0.000000000000000E+00   0.000000000000000E+00   0.000000000000000E+00
   0.000000000000000E+00   0.000000000000000E+00   0.000000000000000E+00
   0.000000000000000E+00   0.000000000000000E+00   0.000000000000000E+00
   0.000000000000000E+00   0.000000000000000E+00   0.000000000000000E+00
   0.000000000000000E+00   0.000000000000000E+00   0.000000000000000E+00
   0.000000000000000E+00   0.000000000000000E+00   0.000000000000000E+00
   0.000000000000000E+00   0.000000000000000E+00   0.000000000000000E+00
   0.000000000000000E+00   0.000000000000000E+00   0.000000000000000E+00
   0.000000000000000E+00   0.000000000000000E+00   0.000000000000000E+00
   0.000000000000000E+00   0.000000000000000E+00   0.000000000000000E+00
   0.000000000000000E+00   0.000000000000000E+00   0.000000000000000E+00
   0.000000000000000E+00   0.000000000000000E+00   0.000000000000000E+00
   0.000000000000000E+00   0.000000000000000E+00   0.000000000000000E+00
   0.000000000000000E+00   0.000000000000000E+00   0.000000000000000E+00
   0.000000000000000E+00   0.000000000000000E+00   0.000000000000000E+00
   0.000000000000000E+00   0.000000000000000E+00   0.000000000000000E+00
   0.000000000000000E+00   0.000000000000000E+00   0.000000000000000E+00
   0.000000000000000E+00   0.000000000000000E+00   0.000000000000000E+00
   0.000000000000000E+00   0.000000000000000E+00   0.000000000000000E+00
   0.000000000000000E+00   0.000000000000000E+00   0.000000000000000E+00
   0.000000000000000E+00   0.000000000000000E+00   0.000000000000000E+00
   0.000000000000000E+00   0.000000000000000E+00   0.000000000000000E+00
   0.000000000000000E+00   0.000000000000000E+00   0.000000000000000E+00
   0.000000000000000E+00   0.000000000000000E+00   0.000000000000000E+00
   0.000000000000000E+00   0.000000000000000E+00   0.000000000000000E+00
   0.000000000000000E+00   0.000000000000000E+00   0.000000000000000E+00
   0.000000000000000E+00   0.000000000000000E+00   0.000000000000000E+00
   0.000000000000000E+00   0.000000000000000E+00   0.000000000000000E+00
   0.000000000000000E+00   0.000000000000000E+00   0.000000000000000E+00
   0.000000000000000E+00   0.000000000000000E+00   0.000000000000000E+00
   0.000000000000000E+00   0.000000000000000E+00   0.000000000000000E+00
   0.000000000000000E+00   0.000000000000000E+00   0.000000000000000E+00
   0.000000000000000E+00   0.000000000000000E+00   0.000000000000000E+00
   0.000000000000000E+00   0.000000000000000E+00   0.000000000000000E+00
   0.000000000000000E+00   0.000000000000000E+00   0.000000000000000E+00
   0.000000000000000E+00   0.000000000000000E+00   0.000000000000000E+00
   0.000000000000000E+00   0.000000000000000E+00   0.000000000000000E+00
   0.000000000000000E+00   0.000000000000000E+00   0.000000000000000E+00
   0.000000000000000E+00   0.000000000000000E+00   0.000000000000000E+00
   0.000000000000000E+00   0.000000000000000E+00   0.000000000000000E+00
   0.000000000000000E+00   0.000000000000000E+00   0.000000000000000E+00
   0.000000000000000E+00   0.000000000000000E+00   0.000000000000000E+00
   0.000000000000000E+00   0.000000000000000E+00   0.000000000000000E+00
   0.000000000000000E+00   0.000000000000000E+00   0.000000000000000E+00
   0.000000000000000E+00   0.000000000000000E+00   0.000000000000000E+00
   0.000000000000000E+00   0.000000000000000E+00   0.000000000000000E+00
   0.000000000000000E+00   0.000000000000000E+00   0.000000000000000E+00
   0.000000000000000E+00   0.000000000000000E+00   0.000000000000000E+00
   0.000000000000000E+00   0.000000000000000E+00   0.000000000000000E+00
   0.000000000000000E+00   0.000000000000000E+00   0.000000000000000E+00
   0.000000000000000E+00   0.000000000000000E+00   0.000000000000000E+00
   0.000000000000000E+00   0.000000000000000E+00   0.000000000000000E+00
   0.000000000000000E+00   0.000000000000000E+00   0.000000000000000E+00
   0.000000000000000E+00   0.000000000000000E+00   0.000000000000000E+00
   0.000000000000000E+00   0.000000000000000E+00   0.000000000000000E+00
   0.000000000000000E+00   0.000000000000000E+00   0.000000000000000E+00
   0.000000000000000E+00   0.000000000000000E+00   0.000000000000000E+00
   0.000000000000000E+00   0.000000000000000E+00   0.000000000000000E+00
   0.000000000000000E+00   0.000000000000000E+00   0.000000000000000E+00
   0.000000000000000E+00   0.000000000000000E+00   0.000000000000000E+00
   0.000000000000000E+00   0.000000000000000E+00   0.000000000000000E+00
   0.000000000000000E+00   0.000000000000000E+00   0.000000000000000E+00
   0.000000000000000E+00   0.000000000000000E+00   0.000000000000000E+00
   0.000000000000000E+00   0.000000000000000E+00   0.000000000000000E+00
   0.000000000000000E+00   0.000000000000000E+00   0.000000000000000E+00
   0.000000000000000E+00   0.000000000000000E+00   0.000000000000000E+00
   0.000000000000000E+00   0.000000000000000E+00   0.000000000000000E+00
   0.000000000000000E+00   0.000000000000000E+00   0.000000000000000E+00
   0.000000000000000E+00   0.000000000000000E+00   0.000000000000000E+00
   0.000000000000000E+00   0.000000000000000E+00   0.000000000000000E+00
   0.000000000000000E+00   0.000000000000000E+00   0.000000000000000E+00
   0.000000000000000E+00   0.000000000000000E+00   0.000000000000000E+00
   0.000000000000000E+00   0.000000000000000E+00   0.000000000000000E+00
   0.000000000000000E+00   0.000000000000000E+00   0.000000000000000E+00
   0.000000000000000E+00   0.000000000000000E+00   0.000000000000000E+00
   0.000000000000000E+00   0.000000000000000E+00   0.000000000000000E+00
   0.000000000000000E+00   0.000000000000000E+00   0.000000000000000E+00
   0.000000000000000E+00   0.000000000000000E+00   0.000000000000000E+00
   0.000000000000000E+00   0.000000000000000E+00   0.000000000000000E+00
   0.000000000000000E+00   0.000000000000000E+00   0.000000000000000E+00
   0.000000000000000E+00   0.000000000000000E+00   0.000000000000000E+00
   0.000000000000000E+00   0.000000000000000E+00   0.000000000000000E+00
   0.000000000000000E+00   0.000000000000000E+00   0.000000000000000E+00
   0.000000000000000E+00   0.000000000000000E+00   0.000000000000000E+00
   0.000000000000000E+00   0.000000000000000E+00   0.000000000000000E+00
   0.000000000000000E+00   0.000000000000000E+00   0.000000000000000E+00
   0.000000000000000E+00   0.000000000000000E+00   0.000000000000000E+00
   0.000000000000000E+00   0.000000000000000E+00   0.000000000000000E+00
   0.000000000000000E+00   0.000000000000000E+00   0.000000000000000E+00
   0.000000000000000E+00   0.000000000000000E+00   0.000000000000000E+00
   0.000000000000000E+00   0.000000000000000E+00   0.000000000000000E+00
   0.000000000000000E+00   0.000000000000000E+00   0.000000000000000E+00
   0.000000000000000E+00   0.000000000000000E+00   0.000000000000000E+00
   0.000000000000000E+00   0.000000000000000E+00   0.000000000000000E+00
   0.000000000000000E+00   0.000000000000000E+00   0.000000000000000E+00
   0.000000000000000E+00   0.000000000000000E+00   0.000000000000000E+00
   0.000000000000000E+00   0.000000000000000E+00   0.000000000000000E+00
   0.000000000000000E+00   0.000000000000000E+00   0.000000000000000E+00
   0.000000000000000E+00   0.000000000000000E+00   0.000000000000000E+00
   0.000000000000000E+00   0.000000000000000E+00   0.000000000000000E+00
   0.000000000000000E+00   0.000000000000000E+00   0.000000000000000E+00
      </PP_QIJL.1.2.0>
      <PP_QIJL.1.3.1 first_index="1" second_index="3" composite_index="4" angular_momentum="1" size="1095">
   4.446079318470891E-12   4.615972870950758E-12   4.792358394235935E-12
   4.975483959423237E-12   5.165607116896860E-12   5.362995258550510E-12
   5.567925993850850E-12   5.780687540271032E-12   6.001579128643411E-12
   6.230911424001683E-12   6.469006962504046E-12   6.716200605052184E-12
   6.972840008243864E-12   7.239286113321499E-12   7.515913653804525E-12
   7.803111682519145E-12   8.101284118767123E-12   8.410850316402855E-12
   8.732245653617720E-12   9.065922145261393E-12   9.412349078560865E-12
   9.772013673131736E-12   1.014542176620969E-11   1.053309852406604E-11
   1.093558918060782E-11   1.135345980420104E-11   1.178729809379598E-11
   1.223771420547377E-11   1.270534161057687E-11   1.319083798663060E-11
   1.369488614230808E-11   1.421819497774015E-11   1.476150048152041E-11
   1.532556676580775E-11   1.591118714098216E-11   1.651918523136499E-11
   1.715041613357309E-11   1.780576761913596E-11   1.848616138306690E-11
   1.919255434014477E-11   1.992593997072853E-11   2.068734971799850E-11
   2.147785443858840E-11   2.229856590864886E-11   2.315063838746063E-11
   2.403527024079580E-11   2.495370562631121E-11   2.590723624334366E-11
   2.689720314956784E-11   2.792499864707263E-11   2.899206824050698E-11
   3.009991267005096E-11   3.125009002206995E-11   3.244421792042066E-11
   3.368397580149161E-11   3.497110727617589E-11   3.630742258210019E-11
   3.769480112955755E-11   3.913519414472459E-11   4.063062741388149E-11
   4.218320413249241E-11   4.379510786315537E-11   4.546860560658026E-11
   4.720605098991423E-11   4.900988757689924E-11   5.088265230451541E-11
   5.282697905094577E-11   5.484560233987858E-11   5.694136118635715E-11
   5.911720308958774E-11   6.137618817831727E-11   6.372149351461504E-11
   6.615641756210853E-11   6.868438482495778E-11   7.130895066409435E-11
   7.403380629749455E-11   7.686278399152368E-11   7.979986245064936E-11
   8.284917241310465E-11   8.601500246037179E-11   8.930180504865406E-11
   9.271420277082197E-11   9.625699485763775E-11   9.993516392740210E-11
   1.037538829935171E-10   1.077185227398170E-10   1.118346590739034E-10
   1.161080809691045E-10   1.205447986060870E-10   1.251510518255745E-10
   1.299333189040535E-10   1.348983256648162E-10   1.400530549371482E-10
   1.454047563769673E-10   1.509609566627237E-10   1.567294700808991E-10
   1.627184095159957E-10   1.689361978604677E-10   1.753915798606433E-10
   1.820936344152973E-10   1.890517873441667E-10   1.962758246443737E-10
   2.037759062533920E-10   2.115625803379163E-10   2.196467981287311E-10
   2.280399293224348E-10   2.367537780716898E-10   2.458005995864779E-10
   2.551931173697129E-10   2.649445411114493E-10   2.750685852668468E-10
   2.855794883440277E-10   2.964920329289435E-10   3.078215664754180E-10
   3.195840228896035E-10   3.317959449391994E-10   3.444745075189596E-10
   3.576375418051974E-10   3.713035603332609E-10   3.854917830332505E-10
   4.002221642605802E-10   4.155154208594143E-10   4.313930612984300E-10
   4.478774159198891E-10   4.649916683445603E-10   4.827598880766407E-10
   5.012070643545553E-10   5.203591412952175E-10   5.402430543811834E-10
   5.608867683420168E-10   5.823193164831173E-10   6.045708415173486E-10
   6.276726379568644E-10   6.516571961247594E-10   6.765582478484400E-10
   7.024108138989522E-10   7.292512532430135E-10   7.571173141769846E-10
   7.860481874146941E-10   8.160845612037907E-10   8.472686785480928E-10
   8.796443966164498E-10   9.132572484216302E-10   9.481545068559774E-10
   9.843852511739030E-10   1.022000436014666E-09   1.061052963062556E-09
   1.101597755445207E-09   1.143691834974682E-09   1.187394402339959E-09
   1.232766920363548E-09   1.279873200439367E-09   1.328779492273388E-09
   1.379554577053267E-09   1.432269864177979E-09   1.486999491683440E-09
   1.543820430505391E-09   1.602812592726129E-09   1.664058943957276E-09
   1.727645620016688E-09   1.793662048063461E-09   1.862201072361496E-09
   1.933359084848371E-09   2.007236160693161E-09   2.083936199033843E-09
   2.163567069092071E-09   2.246240761870997E-09   2.332073547649164E-09
   2.421186139492167E-09   2.513703863011896E-09   2.609756832611975E-09
   2.709480134467464E-09   2.813014016495804E-09   2.920504085586339E-09
   3.032101512365706E-09   3.147963243786808E-09   3.268252223840676E-09
   3.393137622701074E-09   3.522795074624425E-09   3.657406924939383E-09
   3.797162486473214E-09   3.942258305775879E-09   4.092898439515645E-09
   4.249294741435270E-09   4.411667160271992E-09   4.580244049060093E-09
   4.755262486251302E-09   4.936968609103992E-09   5.125617959810267E-09
   5.321475844847532E-09   5.524817708059395E-09   5.735929517991107E-09
   5.955108170023278E-09   6.182661903869852E-09   6.418910737027029E-09
   6.664186914782286E-09   6.918835377416715E-09   7.183214245256753E-09
   7.457695322257735E-09   7.742664618827065E-09   8.038522894621564E-09
   8.345686222082920E-09   8.664586571502303E-09   8.995672418437520E-09
   9.339409374336131E-09   9.696280841250685E-09   1.006678869156730E-08
   1.045145397370190E-08   1.085081764475684E-08   1.126544133116768E-08
   1.169590811840850E-08   1.214282337086709E-08   1.260681558304084E-08
   1.308853726325091E-08   1.358866585111618E-08   1.410790467007615E-08
   1.464698391630268E-08   1.520666168538870E-08   1.578772503825831E-08
   1.639099110779559E-08   1.701730824774677E-08   1.766755722551198E-08
   1.834265246050063E-08   1.904354330979233E-08   1.977121540290948E-08
   2.052669202757620E-08   2.131103556841295E-08   2.212534900058587E-08
   2.297077744051139E-08   2.384850975579456E-08   2.475978023666197E-08
   2.570587033123990E-08   2.668811044711303E-08   2.770788182169671E-08
   2.876661846405025E-08   2.986580917085713E-08   3.100699961940815E-08
   3.219179454052297E-08   3.342185997446621E-08   3.469892561302535E-08
   3.602478723103904E-08   3.740130921079463E-08   3.883042716283607E-08
   4.031415064686672E-08   4.185456599656692E-08   4.345383925229293E-08
   4.511421920577753E-08   4.683804056110590E-08   4.862772721640709E-08
   5.048579567086898E-08   5.241485856185917E-08   5.441762833712078E-08
   5.649692106719605E-08   5.865566040343275E-08   6.089688168712846E-08
   6.322373621558151E-08   6.563949567103788E-08   6.814755671874941E-08
   7.075144578059917E-08   7.345482399099280E-08   7.626149234197087E-08
   7.917539702476494E-08   8.220063497529059E-08   8.534145963136185E-08
   8.860228690970372E-08   9.198770141114864E-08   9.550246286272541E-08
   9.915151280567449E-08   1.029399815387758E-07   1.068731953267261E-07
   1.109566838836763E-07   1.151961881424289E-07   1.195976683201850E-07
   1.241673122921582E-07   1.289115442847936E-07   1.338370339007812E-07
   1.389507054885202E-07   1.442597478691644E-07   1.497716244348886E-07
   1.554940836325306E-07   1.614351698472971E-07   1.676032347017944E-07
   1.740069487862108E-07   1.806553138360912E-07   1.875576753747640E-07
   1.947237358381309E-07   2.021635682002081E-07   2.098876301184974E-07
   2.179067786190044E-07   2.262322853414653E-07   2.348758523661246E-07
   2.438496286442319E-07   2.531662270552460E-07   2.628387421146324E-07
   2.728807683570319E-07   2.833064194205019E-07   2.941303478586972E-07
   3.053677657081701E-07   3.170344658406518E-07   3.291468441286614E-07
   3.417219224568654E-07   3.547773726106616E-07   3.683315410752422E-07
   3.824034747801494E-07   3.970129478252958E-07   4.121804892258133E-07
   4.279274117137421E-07   4.442758416383717E-07   4.612487500052285E-07
   4.788699846982710E-07   4.971643039300325E-07   5.161574109655761E-07
   5.358759901703355E-07   5.563477444304230E-07   5.776014339989023E-07
   5.996669168212860E-07   6.225751903973909E-07   6.463584352367601E-07
   6.710500599698989E-07   6.966847481759479E-07   7.232985069942831E-07
   7.509287175862232E-07   7.796141875177660E-07   8.093952051361885E-07
   8.403135960161343E-07   8.724127815537667E-07   9.057378397902779E-07
   9.403355685499908E-07   9.762545509796389E-07   1.013545223582137E-06
   1.052259946835426E-06   1.092453078499901E-06   1.134181049711323E-06
   1.177502443966686E-06   1.222478079114446E-06   1.269171092459279E-06
   1.317647029102727E-06   1.367973933639586E-06   1.420222445339091E-06
   1.474465896941721E-06   1.530780417207817E-06   1.589245037362424E-06
   1.649941801579639E-06   1.712955881663743E-06   1.778375696082622E-06
   1.846293033517547E-06   1.916803181103498E-06   1.990005057532988E-06
   2.066001351209462E-06   2.144898663640087E-06   2.226807658265063E-06
   2.311843214930370E-06   2.400124590214261E-06   2.491775583829184E-06
   2.586924711328925E-06   2.685705383356299E-06   2.788256091680350E-06
   2.894720602275664E-06   3.005248155710768E-06   3.119993675119556E-06
   3.239117982040481E-06   3.362788020421312E-06   3.491177089090524E-06
   3.624465083021246E-06   3.762838743709848E-06   3.906491919016403E-06
   4.055625832817976E-06   4.210449364845078E-06   4.371179341080710E-06
   4.538040835118811E-06   4.711267480889641E-06   4.891101797180106E-06
   5.077795524386262E-06   5.271609973958712E-06   5.472816391009730E-06
   5.681696330577628E-06   5.898542048053513E-06   6.123656904299363E-06
   6.357355786007201E-06   6.599965541858538E-06   6.851825435080103E-06
   7.113287612997262E-06   7.384717594221867E-06   7.666494774124638E-06
   7.959012949270811E-06   8.262680861519157E-06   8.577922762516389E-06
   8.905178999335719E-06   9.244906622042131E-06   9.597580013993208E-06
   9.963691545713979E-06   1.034375225321360E-05   1.073829254164022E-05
   1.114786291521023E-05   1.157303473437018E-05   1.201440100119541E-05
   1.247257717405556E-05   1.294820201261945E-05   1.344193845430794E-05
   1.395447452333955E-05   1.448652427356466E-05   1.503882876630468E-05
   1.561215708448398E-05   1.620730738435991E-05   1.682510798622289E-05
   1.746641850546871E-05   1.813213102551030E-05   1.882317131403365E-05
   1.954050008416145E-05   2.028511430214129E-05   2.105804854322527E-05
   2.186037639747428E-05   2.269321192726646E-05   2.355771117836692E-05
   2.445507374645463E-05   2.538654440109626E-05   2.635341476918781E-05
   2.735702507999353E-05   2.839876597393858E-05   2.948008037742030E-05
   3.060246544595483E-05   3.176747457806166E-05   3.297671950236392E-05
   3.423187244045995E-05   3.553466834821258E-05   3.688690723817892E-05
   3.829045658598912E-05   3.974725382358921E-05   4.125930892232365E-05
   4.282870706895837E-05   4.445761143781819E-05   4.614826606233027E-05
   4.790299880934132E-05   4.972422445970238E-05   5.161444789871102E-05
   5.357626742010030E-05   5.561237814738380E-05   5.772557557648261E-05
   5.991875924364695E-05   6.219493652283887E-05   6.455722655682850E-05
   6.700886432639615E-05   6.955320486213835E-05   7.219372760352023E-05
   7.493404090991292E-05   7.777788672851189E-05   8.072914542414653E-05
   8.379184077609875E-05   8.697014514723047E-05   9.026838483079758E-05
   9.369104558049125E-05   9.724277832937685E-05   1.009284051035073E-04
   1.047529251361705E-04   1.087215211887984E-04   1.128395660847578E-04
   1.171126294623237E-04   1.215464847532931E-04   1.261471163938126E-04
   1.309207272741166E-04   1.358737464339893E-04   1.410128370108935E-04
   1.463449044477990E-04   1.518771049678682E-04   1.576168543232489E-04
   1.635718368253188E-04   1.697500146638108E-04   1.761596375223303E-04
   1.828092524978294E-04   1.897077143316895E-04   1.968641959600626E-04
   2.042881993912085E-04   2.119895669175240E-04   2.199784926700071E-04
   2.282655345228589E-04   2.368616263558922E-04   2.457780906823617E-04
   2.550266516497343E-04   2.646194484208485E-04   2.745690489427128E-04
   2.848884641101072E-04   2.955911623308733E-04   3.066910844996099E-04
   3.182026593861761E-04   3.301408194451170E-04   3.425210170517492E-04
   3.553592411702431E-04   3.686720344585749E-04   3.824765108147192E-04
   3.967903733678480E-04   4.116319329176850E-04   4.270201268244309E-04
   4.429745383509019E-04   4.595154164576219E-04   4.766636960507190E-04
   4.944410186813243E-04   5.128697536941266E-04   5.319730198213763E-04
   5.517747072173722E-04   5.722994999268590E-04   5.935728987791990E-04
   6.156212446984462E-04   6.384717424174383E-04   6.621524845820641E-04
   6.866924762295491E-04   7.121216596222181E-04   7.384709394155610E-04
   7.657722081366384E-04   7.940583719458264E-04   8.233633766516221E-04
   8.537222339447730E-04   8.851710478141784E-04   9.177470411030253E-04
   9.514885821592775E-04   9.864352115299963E-04   1.022627668644046E-03
   1.060107918422390E-03   1.098919177749568E-03   1.139105941733868E-03
   1.180714009677268E-03   1.223790510669330E-03   1.268383928711922E-03
   1.314544127273786E-03   1.362322373165740E-03   1.411771359618407E-03
   1.462945228435011E-03   1.515899591081819E-03   1.570691548568182E-03
   1.627379709957037E-03   1.686024209334691E-03   1.746686721056266E-03
   1.809430473069824E-03   1.874320258108024E-03   1.941422442521489E-03
   2.010804972512171E-03   2.082537377508467E-03   2.156690770406523E-03
   2.233337844383450E-03   2.312552865969175E-03   2.394411664042943E-03
   2.478991614399293E-03   2.566371619505731E-03   2.656632083050732E-03
   2.749854878856109E-03   2.846123313701721E-03   2.945522083583544E-03
   3.048137222897810E-03   3.154056046014297E-03   3.263367080671245E-03
   3.376159992592128E-03   3.492525500691249E-03   3.612555282200566E-03
   3.736341867014008E-03   3.863978520508603E-03   3.995559114063131E-03
   4.131177982455302E-03   4.270929767277604E-03   4.414909245469799E-03
   4.563211142023058E-03   4.715929925866284E-03   4.873159587900166E-03
   5.034993400098565E-03   5.201523654549838E-03   5.372841381263890E-03
   5.549036043522675E-03   5.730195209504015E-03   5.916404198861072E-03
   6.107745702891493E-03   6.304299376883990E-03   6.506141403183091E-03
   6.713344023468330E-03   6.925975038700453E-03   7.144097275145804E-03
   7.367768014851621E-03   7.597038388908808E-03   7.831952731807038E-03
   8.072547895159446E-03   8.318852519051331E-03   8.570886259251226E-03
   8.828658968512398E-03   9.092169830190988E-03   9.361406442413990E-03
   9.636343851046260E-03   9.916943529734695E-03   1.020315230534699E-02
   1.049490122717757E-02   1.079210437836268E-02   1.109465762803371E-02
   1.140243732284418E-02   1.171529891663235E-02   1.203307553713141E-02
   1.235557648881460E-02   1.268258569116436E-02   1.301386005188814E-02
   1.334912777486758E-02   1.368808660292869E-02   1.403040199585918E-02
   1.437570524447843E-02   1.472359152199083E-02   1.507361787432411E-02
   1.542530115167808E-02   1.577811588408689E-02   1.613149210443374E-02
   1.648481312305539E-02   1.683741325883741E-02   1.718857553253468E-02
   1.753752932895807E-02   1.788344803565175E-02   1.822544666675088E-02
   1.856257948185642E-02   1.889383761100127E-02   1.921814669810781E-02
   1.953436457675649E-02   1.984127899360175E-02   2.013760539638287E-02
   2.042198480518992E-02   2.069298178745459E-02   2.094908255904472E-02
   2.118869323584753E-02   2.141013826232623E-02   2.161165904572603E-02
   2.179141282688091E-02   2.194747182092539E-02   2.207782266363752E-02
   2.218036620161726E-02   2.225291766702530E-02   2.229320728015507E-02
   2.229888132566321E-02   2.226750375082134E-02   2.219655833664399E-02
   2.208345149516638E-02   2.192551574845413E-02   2.172001394708648E-02
   2.146414428781872E-02   2.115504619184998E-02   2.078980710654138E-02
   2.036547029448577E-02   1.987904367445650E-02   1.932750977888050E-02
   1.870783689201390E-02   1.801699143185353E-02   1.725195163690103E-02
   1.640972261610798E-02   1.548735281655404E-02   1.448195195854309E-02
   1.339071048170740E-02   1.221092053827111E-02   1.093999856071384E-02
   9.575509420537982E-03   8.115192182577051E-03   6.556987445114497E-03
   4.899066239904125E-03   3.139860447862712E-03   1.278094665598503E-03
  -6.871805650259783E-04  -2.756554277555175E-03  -4.930219493088545E-03
  -7.207936695767614E-03  -9.588996576693903E-03  -1.207218228717389E-02
  -1.465573148056018E-02  -1.733729846274117E-02  -2.011391681434713E-02
  -2.298196289278548E-02  -2.593712066889099E-02  -2.897434840093262E-02
  -3.208784769738920E-02  -3.527103556865677E-02  -3.851652011597664E-02
  -4.181608055239461E-02  -4.516065229453538E-02  -4.854031790414670E-02
  -5.194430469339073E-02  -5.536098983626310E-02  -5.877791384852249E-02
  -6.218180330833779E-02  -6.555860368741553E-02  -6.889352314545374E-02
  -7.217108810710798E-02  -7.537521138766981E-02  -7.848927355889972E-02
  -8.149621814722421E-02  -8.437866113018647E-02  -8.711901504110878E-02
  -8.969962780384071E-02  -9.210293619709845E-02  -9.431163358927569E-02
  -9.630885128826804E-02  -9.807835251596324E-02  -9.960473764338737E-02
  -1.008736589108981E-01  -1.018720424100948E-01  -1.025883146234439E-01
  -1.030126303086987E-01  -1.031370979844043E-01  -1.029559987285469E-01
  -1.024659934552665E-01  -1.016663132974979E-01  -1.005589272119589E-01
  -9.914868045537013E-02  -9.744339717825519E-02  -9.545394006911219E-02
  -9.319421978395606E-02  -9.068114684358367E-02  -8.793451880521111E-02
  -8.497683584995629E-02  -8.183303850787380E-02  -7.853016210313796E-02
  -7.509690367795394E-02  -7.156309867733990E-02  -6.795910657664017E-02
  -6.431510693249998E-02  -6.066031005108663E-02  -5.702208959901815E-02
  -5.342504802406536E-02  -4.989002957894630E-02  -4.643310000772884E-02
  -4.306451649282925E-02  -3.978771617747701E-02  -3.660212491394432E-02
  -3.351635372665029E-02  -3.054124614060227E-02  -2.768667417727666E-02
  -2.496145213703460E-02  -2.237325811490343E-02  -1.992856460020853E-02
  -1.763257951112918E-02  -1.548919899951429E-02  -1.350097332826927E-02
  -1.166908707218428E-02  -9.993354822833478E-03  -8.472233488481584E-03
  -7.102852170868923E-03  -5.881060472492483E-03  -4.801495941053391E-03
  -3.857671193036483E-03  -3.042081077397563E-03  -2.346330040289057E-03
  -1.761275811846041E-03  -1.277186014969511E-03  -8.839329344449975E-04
  -5.712183982187202E-04  -3.287786404803095E-04  -1.466311008920806E-04
  -1.532709871676641E-05   7.378057679219285E-05   1.282594438807294E-04
   1.543106937523797E-04   1.564769883783956E-04   1.388401293347385E-04
   1.095288618646606E-04   7.654283727354105E-05   4.610493725409892E-05
   2.243733832651973E-05   7.551895859103652E-06   1.059099371258920E-06
   0.000000000000000E+00   0.000000000000000E+00   0.000000000000000E+00
   0.000000000000000E+00   0.000000000000000E+00   0.000000000000000E+00
   0.000000000000000E+00   0.000000000000000E+00   0.000000000000000E+00
   0.000000000000000E+00   0.000000000000000E+00   0.000000000000000E+00
   0.000000000000000E+00   0.000000000000000E+00   0.000000000000000E+00
   0.000000000000000E+00   0.000000000000000E+00   0.000000000000000E+00
   0.000000000000000E+00   0.000000000000000E+00   0.000000000000000E+00
   0.000000000000000E+00   0.000000000000000E+00   0.000000000000000E+00
   0.000000000000000E+00   0.000000000000000E+00   0.000000000000000E+00
   0.000000000000000E+00   0.000000000000000E+00   0.000000000000000E+00
   0.000000000000000E+00   0.000000000000000E+00   0.000000000000000E+00
   0.000000000000000E+00   0.000000000000000E+00   0.000000000000000E+00
   0.000000000000000E+00   0.000000000000000E+00   0.000000000000000E+00
   0.000000000000000E+00   0.000000000000000E+00   0.000000000000000E+00
   0.000000000000000E+00   0.000000000000000E+00   0.000000000000000E+00
   0.000000000000000E+00   0.000000000000000E+00   0.000000000000000E+00
   0.000000000000000E+00   0.000000000000000E+00   0.000000000000000E+00
   0.000000000000000E+00   0.000000000000000E+00   0.000000000000000E+00
   0.000000000000000E+00   0.000000000000000E+00   0.000000000000000E+00
   0.000000000000000E+00   0.000000000000000E+00   0.000000000000000E+00
   0.000000000000000E+00   0.000000000000000E+00   0.000000000000000E+00
   0.000000000000000E+00   0.000000000000000E+00   0.000000000000000E+00
   0.000000000000000E+00   0.000000000000000E+00   0.000000000000000E+00
   0.000000000000000E+00   0.000000000000000E+00   0.000000000000000E+00
   0.000000000000000E+00   0.000000000000000E+00   0.000000000000000E+00
   0.000000000000000E+00   0.000000000000000E+00   0.000000000000000E+00
   0.000000000000000E+00   0.000000000000000E+00   0.000000000000000E+00
   0.000000000000000E+00   0.000000000000000E+00   0.000000000000000E+00
   0.000000000000000E+00   0.000000000000000E+00   0.000000000000000E+00
   0.000000000000000E+00   0.000000000000000E+00   0.000000000000000E+00
   0.000000000000000E+00   0.000000000000000E+00   0.000000000000000E+00
   0.000000000000000E+00   0.000000000000000E+00   0.000000000000000E+00
   0.000000000000000E+00   0.000000000000000E+00   0.000000000000000E+00
   0.000000000000000E+00   0.000000000000000E+00   0.000000000000000E+00
   0.000000000000000E+00   0.000000000000000E+00   0.000000000000000E+00
   0.000000000000000E+00   0.000000000000000E+00   0.000000000000000E+00
   0.000000000000000E+00   0.000000000000000E+00   0.000000000000000E+00
   0.000000000000000E+00   0.000000000000000E+00   0.000000000000000E+00
   0.000000000000000E+00   0.000000000000000E+00   0.000000000000000E+00
   0.000000000000000E+00   0.000000000000000E+00   0.000000000000000E+00
   0.000000000000000E+00   0.000000000000000E+00   0.000000000000000E+00
   0.000000000000000E+00   0.000000000000000E+00   0.000000000000000E+00
   0.000000000000000E+00   0.000000000000000E+00   0.000000000000000E+00
   0.000000000000000E+00   0.000000000000000E+00   0.000000000000000E+00
   0.000000000000000E+00   0.000000000000000E+00   0.000000000000000E+00
   0.000000000000000E+00   0.000000000000000E+00   0.000000000000000E+00
   0.000000000000000E+00   0.000000000000000E+00   0.000000000000000E+00
   0.000000000000000E+00   0.000000000000000E+00   0.000000000000000E+00
   0.000000000000000E+00   0.000000000000000E+00   0.000000000000000E+00
   0.000000000000000E+00   0.000000000000000E+00   0.000000000000000E+00
   0.000000000000000E+00   0.000000000000000E+00   0.000000000000000E+00
   0.000000000000000E+00   0.000000000000000E+00   0.000000000000000E+00
   0.000000000000000E+00   0.000000000000000E+00   0.000000000000000E+00
   0.000000000000000E+00   0.000000000000000E+00   0.000000000000000E+00
   0.000000000000000E+00   0.000000000000000E+00   0.000000000000000E+00
   0.000000000000000E+00   0.000000000000000E+00   0.000000000000000E+00
   0.000000000000000E+00   0.000000000000000E+00   0.000000000000000E+00
   0.000000000000000E+00   0.000000000000000E+00   0.000000000000000E+00
   0.000000000000000E+00   0.000000000000000E+00   0.000000000000000E+00
   0.000000000000000E+00   0.000000000000000E+00   0.000000000000000E+00
   0.000000000000000E+00   0.000000000000000E+00   0.000000000000000E+00
   0.000000000000000E+00   0.000000000000000E+00   0.000000000000000E+00
   0.000000000000000E+00   0.000000000000000E+00   0.000000000000000E+00
   0.000000000000000E+00   0.000000000000000E+00   0.000000000000000E+00
   0.000000000000000E+00   0.000000000000000E+00   0.000000000000000E+00
   0.000000000000000E+00   0.000000000000000E+00   0.000000000000000E+00
   0.000000000000000E+00   0.000000000000000E+00   0.000000000000000E+00
   0.000000000000000E+00   0.000000000000000E+00   0.000000000000000E+00
   0.000000000000000E+00   0.000000000000000E+00   0.000000000000000E+00
   0.000000000000000E+00   0.000000000000000E+00   0.000000000000000E+00
   0.000000000000000E+00   0.000000000000000E+00   0.000000000000000E+00
   0.000000000000000E+00   0.000000000000000E+00   0.000000000000000E+00
   0.000000000000000E+00   0.000000000000000E+00   0.000000000000000E+00
   0.000000000000000E+00   0.000000000000000E+00   0.000000000000000E+00
   0.000000000000000E+00   0.000000000000000E+00   0.000000000000000E+00
   0.000000000000000E+00   0.000000000000000E+00   0.000000000000000E+00
   0.000000000000000E+00   0.000000000000000E+00   0.000000000000000E+00
   0.000000000000000E+00   0.000000000000000E+00   0.000000000000000E+00
   0.000000000000000E+00   0.000000000000000E+00   0.000000000000000E+00
   0.000000000000000E+00   0.000000000000000E+00   0.000000000000000E+00
   0.000000000000000E+00   0.000000000000000E+00   0.000000000000000E+00
   0.000000000000000E+00   0.000000000000000E+00   0.000000000000000E+00
   0.000000000000000E+00   0.000000000000000E+00   0.000000000000000E+00
   0.000000000000000E+00   0.000000000000000E+00   0.000000000000000E+00
   0.000000000000000E+00   0.000000000000000E+00   0.000000000000000E+00
   0.000000000000000E+00   0.000000000000000E+00   0.000000000000000E+00
   0.000000000000000E+00   0.000000000000000E+00   0.000000000000000E+00
   0.000000000000000E+00   0.000000000000000E+00   0.000000000000000E+00
   0.000000000000000E+00   0.000000000000000E+00   0.000000000000000E+00
   0.000000000000000E+00   0.000000000000000E+00   0.000000000000000E+00
   0.000000000000000E+00   0.000000000000000E+00   0.000000000000000E+00
   0.000000000000000E+00   0.000000000000000E+00   0.000000000000000E+00
   0.000000000000000E+00   0.000000000000000E+00   0.000000000000000E+00
   0.000000000000000E+00   0.000000000000000E+00   0.000000000000000E+00
   0.000000000000000E+00   0.000000000000000E+00   0.000000000000000E+00
   0.000000000000000E+00   0.000000000000000E+00   0.000000000000000E+00
   0.000000000000000E+00   0.000000000000000E+00   0.000000000000000E+00
   0.000000000000000E+00   0.000000000000000E+00   0.000000000000000E+00
   0.000000000000000E+00   0.000000000000000E+00   0.000000000000000E+00
   0.000000000000000E+00   0.000000000000000E+00   0.000000000000000E+00
   0.000000000000000E+00   0.000000000000000E+00   0.000000000000000E+00
   0.000000000000000E+00   0.000000000000000E+00   0.000000000000000E+00
   0.000000000000000E+00   0.000000000000000E+00   0.000000000000000E+00
   0.000000000000000E+00   0.000000000000000E+00   0.000000000000000E+00
   0.000000000000000E+00   0.000000000000000E+00   0.000000000000000E+00
   0.000000000000000E+00   0.000000000000000E+00   0.000000000000000E+00
   0.000000000000000E+00   0.000000000000000E+00   0.000000000000000E+00
   0.000000000000000E+00   0.000000000000000E+00   0.000000000000000E+00
   0.000000000000000E+00   0.000000000000000E+00   0.000000000000000E+00
   0.000000000000000E+00   0.000000000000000E+00   0.000000000000000E+00
   0.000000000000000E+00   0.000000000000000E+00   0.000000000000000E+00
   0.000000000000000E+00   0.000000000000000E+00   0.000000000000000E+00
   0.000000000000000E+00   0.000000000000000E+00   0.000000000000000E+00
      </PP_QIJL.1.3.1>
      <PP_QIJL.1.4.1 first_index="1" second_index="4" composite_index="7" angular_momentum="1" size="1095">
   2.838494677456755E-12   2.946959216279726E-12   3.059568401001431E-12
   3.176480606770978E-12   3.297860260565144E-12   3.423878072440560E-12
   3.554711275622545E-12   3.690543875768188E-12   3.831566909754231E-12
   3.977978714353803E-12   4.129985205179714E-12   4.287800166286791E-12
   4.451645550840448E-12   4.621751793274379E-12   4.798358133376463E-12
   4.981712952758466E-12   5.172074124183062E-12   5.369709374239219E-12
   5.574896659876121E-12   5.787924559325241E-12   6.009092677960164E-12
   6.238712069665203E-12   6.477105674305287E-12   6.724608771912385E-12
   6.981569454227344E-12   7.248349114260060E-12   7.525322954556891E-12
   7.812880514889806E-12   8.111426220109524E-12   8.421379948933330E-12
   8.743177624467081E-12   9.077271827292425E-12   9.424132431981086E-12
   9.784247267931633E-12   1.015812280545812E-11   1.054628486809527E-11
   1.094927937212239E-11   1.136767309434575E-11   1.180205446921944E-11
   1.225303441642575E-11   1.272124720007871E-11   1.320735132075965E-11
   1.371203044163903E-11   1.423599434998700E-11   1.477997995542530E-11
   1.534475232632385E-11   1.593110576580028E-11   1.653986492883530E-11
   1.717188598207495E-11   1.782805780795143E-11   1.850930325481493E-11
   1.921658043483594E-11   1.995088407150237E-11   2.071324689860707E-11
   2.150474111269351E-11   2.232647988100136E-11   2.317961890703400E-11
   2.406535805594901E-11   2.498494304205753E-11   2.593966718080649E-11
   2.693087320770647E-11   2.795995516676467E-11   2.902836037107799E-11
   3.013759143834376E-11   3.128920840415132E-11   3.248483091602541E-11
   3.372614051130861E-11   3.501488298208514E-11   3.635287083047261E-11
   3.774198581773506E-11   3.918418161080121E-11   4.068148652991150E-11
   4.223600640125707E-11   4.384992751862274E-11   4.552551971820018E-11
   4.726513957089361E-11   4.907123369660986E-11   5.094634220519271E-11
   5.289310226884085E-11   5.491425183103445E-11   5.701263345718468E-11
   5.919119833242423E-11   6.145301041215902E-11   6.380125073121948E-11
   6.623922187767188E-11   6.877035263757984E-11   7.139820281725095E-11
   7.412646824974833E-11   7.695898599270880E-11   7.989973972477864E-11
   8.295286534825369E-11   8.612265680580673E-11   8.941357211947994E-11
   9.283023966043636E-11   9.637746465828910E-11   1.000602359591592E-10
   1.038837330419713E-10   1.078533333028509E-10   1.119746196178694E-10
   1.162533881947729E-10   1.206956567247344E-10   1.253076728455992E-10
   1.300959229285201E-10   1.350671412003426E-10   1.402283192145707E-10
   1.455867156842270E-10   1.511498666904429E-10   1.569255962811306E-10
   1.629220274746450E-10   1.691475936839092E-10   1.756110505770686E-10
   1.823214883913571E-10   1.892883447174905E-10   1.965214177725667E-10
   2.040308801801395E-10   2.118272932768426E-10   2.199216219656890E-10
   2.283252501369293E-10   2.370499966781584E-10   2.461081320961870E-10
   2.555123957740469E-10   2.652760138874105E-10   2.754127180056093E-10
   2.859367644034182E-10   2.968629541107618E-10   3.082066537285324E-10
   3.199838170398067E-10   3.322110074468397E-10   3.449054212653971E-10
   3.580849119091847E-10   3.717680149983767E-10   3.859739744275657E-10
   4.007227694297852E-10   4.160351426746649E-10   4.319326294402407E-10
   4.484375878994247E-10   4.655732305637510E-10   4.833636569285972E-10
   5.018338873657956E-10   5.210098983113033E-10   5.409186587973948E-10
   5.615881683807759E-10   5.830474965199374E-10   6.053268234571287E-10
   6.284574826624481E-10   6.524720048997179E-10   6.774041639761359E-10
   7.032890242400213E-10   7.301629898934481E-10   7.580638561891293E-10
   7.870308625835108E-10   8.171047479208578E-10   8.483278077259114E-10
   8.807439536856834E-10   9.143987754040489E-10   9.493396045159378E-10
   9.856155812513323E-10   1.023277723542632E-09   1.062378998772579E-09
   1.102974398263648E-09   1.145121014613593E-09   1.188878121985977E-09
   1.234307259468512E-09   1.281472317616463E-09   1.330439628302817E-09
   1.381278058001483E-09   1.434059104634838E-09   1.488856998121614E-09
   1.545748804766665E-09   1.604814535639327E-09   1.666137259092708E-09
   1.729803217582289E-09   1.795901948947868E-09   1.864526412329569E-09
   1.935773118894878E-09   2.009742267560452E-09   2.086537885899736E-09
   2.166267976434234E-09   2.249044668514359E-09   2.334984376003301E-09
   2.424207960985558E-09   2.516840903730517E-09   2.613013479149761E-09
   2.712860939996440E-09   2.816523707064191E-09   2.924147566652886E-09
   3.035883875579160E-09   3.151889774019554E-09   3.272328406485800E-09
   3.397369151242851E-09   3.527187858492015E-09   3.661967097654425E-09
   3.801896414102030E-09   3.947172595697414E-09   4.097999949516999E-09
   4.254590589146513E-09   4.417164732952995E-09   4.585951013752164E-09
   4.761186800306840E-09   4.943118531108279E-09   5.132002060909350E-09
   5.328103020497306E-09   5.531697190211100E-09   5.743070887728962E-09
   5.962521370671028E-09   6.190357254582779E-09   6.426898946887386E-09
   6.672479097416200E-09   6.927443066151225E-09   7.192149408836845E-09
   7.466970381142997E-09   7.752292462089245E-09   8.048516897464395E-09
   8.356060264006223E-09   8.675355055133991E-09   9.006850289056562E-09
   9.351012140111671E-09   9.708324594222512E-09   1.007929012939371E-08
   1.046443042220258E-08   1.086428708127824E-08   1.127942240880026E-08
   1.171042019108563E-08   1.215788651937615E-08   1.262245064197904E-08
   1.310476584895788E-08   1.360551039061806E-08   1.412538843107582E-08
   1.466513103825188E-08   1.522549721168029E-08   1.580727494957582E-08
   1.641128235666077E-08   1.703836879430539E-08   1.768941607459959E-08
   1.836533970003273E-08   1.906709015052203E-08   1.979565421959991E-08
   2.055205640163438E-08   2.133736033203327E-08   2.215267028245446E-08
   2.299913271312128E-08   2.387793788442591E-08   2.479032153008101E-08
   2.573756659417206E-08   2.672100503454865E-08   2.774201969508727E-08
   2.880204624945548E-08   2.990257521910601E-08   3.104515406833523E-08
   3.223138937934743E-08   3.346294911037829E-08   3.474156494004904E-08
   3.606903470124135E-08   3.744722490791094E-08   3.887807337838644E-08
   4.036359195883582E-08   4.190586935072411E-08   4.350707404622961E-08
   4.516945737574014E-08   4.689535667170544E-08   4.868719855328550E-08
   5.054750233640564E-08   5.247888357400143E-08   5.448405773142287E-08
   5.656584400215377E-08   5.872716926919900E-08   6.097107221769891E-08
   6.330070760453807E-08   6.571935069093884E-08   6.823040184425669E-08
   7.083739131543039E-08   7.354398419878920E-08   7.635398558116977E-08
   7.927134588756504E-08   8.230016643079980E-08   8.544470517301227E-08
   8.870938270702146E-08   9.209878846596136E-08   9.561768716988903E-08
   9.927102551840048E-08   1.030639391386318E-07   1.070017597983859E-07
   1.110900228944865E-07   1.153344752268551E-07   1.197410830692001E-07
   1.243160405476207E-07   1.290657783388659E-07   1.339969727004250E-07
   1.391165548450972E-07   1.444317206731677E-07   1.499499408758095E-07
   1.556789714238627E-07   1.616268644566630E-07   1.678019795861652E-07
   1.742129956321773E-07   1.808689228051219E-07   1.877791153533883E-07
   1.949532846928802E-07   2.024015130372993E-07   2.101342675480813E-07
   2.181624150236673E-07   2.264972371489930E-07   2.351504463261791E-07
   2.441342021087257E-07   2.534611282619005E-07   2.631443304737659E-07
   2.731974147408915E-07   2.836345064547052E-07   2.944702702153709E-07
   3.057199304005648E-07   3.173992925176416E-07   3.295247653698083E-07
   3.421133840663185E-07   3.551828339091884E-07   3.687514751901120E-07
   3.828383689310984E-07   3.974633036061299E-07   4.126468228799552E-07
   4.284102544030307E-07   4.447757397027367E-07   4.617662652130985E-07
   4.794056944846787E-07   4.977188016212853E-07   5.167313059887538E-07
   5.364699082446810E-07   5.569623277390632E-07   5.782373413378933E-07
   6.003248237236030E-07   6.232557892282692E-07   6.470624352584938E-07
   6.717781873706478E-07   6.974377460610782E-07   7.240771353342190E-07
   7.517337531178276E-07   7.804464235938385E-07   8.102554515182679E-07
   8.412026786052661E-07   8.733315420528358E-07   9.066871352924569E-07
   9.413162710454582E-07   9.772675467746084E-07   1.014591412620126E-06
   1.053340241915742E-06   1.093568404380188E-06   1.135332342087344E-06
   1.178690648318580E-06   1.223704149405975E-06   1.270435989681383E-06
   1.318951719644931E-06   1.369319387478535E-06   1.421609634026690E-06
   1.475895791378252E-06   1.532253985183750E-06   1.590763240847494E-06
   1.651505593743215E-06   1.714566203603116E-06   1.780033473236361E-06
   1.847999171742001E-06   1.918558562384637E-06   1.991810535305600E-06
   2.067857745256147E-06   2.146806754535882E-06   2.228768181336014E-06
   2.313856853687928E-06   2.402191969227137E-06   2.493897260992524E-06
   2.589101169484003E-06   2.687937021215450E-06   2.790543214005219E-06
   2.897063409254416E-06   3.007646731477444E-06   3.122447975352826E-06
   3.241627820575241E-06   3.365353054802439E-06   3.493796804996055E-06
   3.627138777469387E-06   3.765565506967947E-06   3.909270615118367E-06
   4.058455078590917E-06   4.213327507342352E-06   4.374104433309259E-06
   4.541010609937343E-06   4.714279322957411E-06   4.894152712813362E-06
   5.080882109181488E-06   5.274728378025189E-06   5.475962281647368E-06
   5.684864852223117E-06   5.901727779307876E-06   6.126853811834339E-06
   6.360557175135417E-06   6.603164003543421E-06   6.855012789136822E-06
   7.116454847228835E-06   7.387854799211476E-06   7.669591073386640E-06
   7.962056424449739E-06   8.265658472300057E-06   8.580820260883209E-06
   8.907980837802386E-06   9.247595855445644E-06   9.600138194416732E-06
   9.966098610076506E-06   1.034598640303164E-05   1.074033011444060E-05
   1.114967824703051E-05   1.157460001274957E-05   1.201568610802368E-05
   1.247354951760080E-05   1.294882634800979E-05   1.344217669170257E-05
   1.395428552297068E-05   1.448586362676630E-05   1.503764856161423E-05
   1.561040565781373E-05   1.620492905218644E-05   1.682204276067111E-05
   1.746260179009233E-05   1.812749329049186E-05   1.881763774944734E-05
   1.953399022985035E-05   2.027754165266845E-05   2.104932012625775E-05
   2.185039232385212E-05   2.268186491089896E-05   2.354488602396599E-05
   2.444064680300856E-05   2.537038297882369E-05   2.633537651759338E-05
   2.733695732446626E-05   2.837650500819342E-05   2.945545070888928E-05
   3.057527899106117E-05   3.173752980410335E-05   3.294380051252697E-05
   3.419574799825723E-05   3.549509083740609E-05   3.684361155398556E-05
   3.824315895310814E-05   3.969565053629128E-05   4.120307500155007E-05
   4.276749483104205E-05   4.439104896910464E-05   4.607595559359598E-05
   4.782451498352855E-05   4.963911248607417E-05   5.152222158607536E-05
   5.347640708130356E-05   5.550432836676103E-05   5.760874283142022E-05
   5.979250937086648E-05   6.205859201939287E-05   6.441006370517039E-05
   6.685011013221425E-05   6.938203379291573E-05   7.200925811502209E-05
   7.473533174699673E-05   7.756393298577986E-05   8.049887435104721E-05
   8.354410731012326E-05   8.670372715778918E-05   8.998197805528549E-05
   9.338325823286894E-05   9.691212536034721E-05   1.005733020900799E-04
   1.043716817769544E-04   1.083123343799368E-04   1.124005125497764E-04
   1.166416579075433E-04   1.210414075186389E-04   1.256056005669730E-04
   1.303402852340071E-04   1.352517257873303E-04   1.403464098834537E-04
   1.456310560894665E-04   1.511126216281465E-04   1.567983103510871E-04
   1.626955809443012E-04   1.688121553707009E-04   1.751560275537318E-04
   1.817354723062933E-04   1.885590545089785E-04   1.956356385414172E-04
   2.029743979703764E-04   2.105848254979954E-04   2.184767431732864E-04
   2.266603128697537E-04   2.351460470316174E-04   2.439448196908106E-04
   2.530678777564675E-04   2.625268525781912E-04   2.723337717838904E-04
   2.825010713923983E-04   2.930416082005251E-04   3.039686724434912E-04
   3.152960007269854E-04   3.270377892282948E-04   3.392087071630691E-04
   3.518239105133848E-04   3.648990560116978E-04   3.784503153742064E-04
   3.924943897759179E-04   4.070485245584110E-04   4.221305241598947E-04
   4.377587672556276E-04   4.539522220951122E-04   4.707304620207562E-04
   4.881136811507030E-04   5.061227102065920E-04   5.247790324647203E-04
   5.441047998067626E-04   5.641228488436601E-04   5.848567170835600E-04
   6.063306591118021E-04   6.285696627478169E-04   6.515994651404615E-04
   6.754465687598067E-04   7.001382572395091E-04   7.257026110199350E-04
   7.521685227378190E-04   7.795657123036528E-04   8.079247416031013E-04
   8.372770287534909E-04   8.676548618409090E-04   8.990914120575282E-04
   9.316207461524630E-04   9.652778381029180E-04   1.000098579905204E-03
   1.036119791377833E-03   1.073379228860917E-03   1.111915592687739E-03
   1.151768533295496E-03   1.192978655832833E-03   1.235587523111908E-03
   1.279637656742262E-03   1.325172536272770E-03   1.372236596156325E-03
   1.420875220339654E-03   1.471134734267877E-03   1.523062394079791E-03
   1.576706372755750E-03   1.632115742965010E-03   1.689340456343810E-03
   1.748431318919106E-03   1.809439962375666E-03   1.872418810846312E-03
   1.937421042886445E-03   2.004500548274266E-03   2.073711879257994E-03
   2.145110195849966E-03   2.218751204745545E-03   2.294691091421965E-03
   2.372986444948326E-03   2.453694175013653E-03   2.536871420654350E-03
   2.622575450136310E-03   2.710863551420000E-03   2.801792912609028E-03
   2.895420491754436E-03   2.991802875357812E-03   3.090996124886610E-03
   3.193055610585025E-03   3.298035831832872E-03   3.405990223274288E-03
   3.516970945906556E-03   3.631028662288145E-03   3.748212294993927E-03
   3.868568767414157E-03   3.992142725963549E-03   4.118976242736464E-03
   4.249108497615178E-03   4.382575438810191E-03   4.519409420784807E-03
   4.659638818491654E-03   4.803287616825737E-03   4.950374974178796E-03
   5.100914758962388E-03   5.254915057953342E-03   5.412377655305872E-03
   5.573297481069208E-03   5.737662028049995E-03   5.905450735864920E-03
   6.076634341041575E-03   6.251174192046519E-03   6.429021528147751E-03
   6.610116721057612E-03   6.794388478350500E-03   6.981753007710177E-03
   7.172113141134688E-03   7.365357418313742E-03   7.561359128496235E-03
   7.759975310284934E-03   7.961045708933176E-03   8.164391690876819E-03
   8.369815115414196E-03   8.577097163650514E-03   8.785997125052673E-03
   8.996251142216780E-03   9.207570914737997E-03   9.419642363390461E-03
   9.632124256178239E-03   9.844646798207913E-03   1.005681018776161E-02
   1.026818314142006E-02   1.047830139159881E-02   1.068666616042191E-02
   1.089274261446693E-02   1.109595830557634E-02   1.129570160364635E-02
   1.149132012807493E-02   1.168211918538188E-02   1.186736022140409E-02
   1.204625929742230E-02   1.221798560059357E-02   1.238166000014454E-02
   1.253635366193027E-02   1.268108673517662E-02   1.281482712650478E-02
   1.293648937768181E-02   1.304493366494886E-02   1.313896493924753E-02
   1.321733222819023E-02   1.327872812219719E-02   1.332178846884594E-02
   1.334509230113915E-02   1.334716202708619E-02   1.332646390969999E-02
   1.328140886822120E-02   1.321035363308060E-02   1.311160228878036E-02
   1.298340824049375E-02   1.282397664172912E-02   1.263146732184908E-02
   1.240399825355016E-02   1.213964960155977E-02   1.183646839475508E-02
   1.149247386461441E-02   1.110566349332800E-02   1.067401981497094E-02
   1.019551801282449E-02   9.668134355159907E-03   9.089855510509713E-03
   8.458688781576736E-03   7.772673294392705E-03   7.029892176068615E-03
   6.228485750383040E-03   5.366665775457909E-03   4.442730741783088E-03
   3.455082241772245E-03   2.402242413788288E-03   1.282872454055660E-03
   9.579217900074341E-05  -1.159999391754521E-03  -2.485302475379432E-03
  -3.880694047881431E-03  -5.346504524420721E-03  -6.882793692948074E-03
  -8.489326016814376E-03  -1.016554544438765E-02  -1.191054988783715E-02
  -1.372306555910984E-02  -1.560142137863075E-02  -1.754352370128577E-02
  -1.954683163466308E-02  -2.160833325606951E-02  -2.372452306727441E-02
  -2.589138105888588E-02  -2.810435378931267E-02  -3.035833791593719E-02
  -3.264766664776991E-02  -3.496609961883790E-02  -3.730681670904541E-02
  -3.966241636332619E-02  -4.202491897960161E-02  -4.438577595016770E-02
  -4.673588494846159E-02  -4.906561205229767E-02  -5.136482128412816E-02
  -5.362291212713648E-02  -5.582886554127045E-02  -5.797129895400209E-02
  -6.003853063482768E-02  -6.201865377851405E-02  -6.389962051812226E-02
  -6.566933596315735E-02  -6.731576220931725E-02  -6.882703209286824E-02
  -7.019157226361522E-02  -7.139823492512357E-02  -7.243643733905679E-02
  -7.329630791268639E-02  -7.396883738592448E-02  -7.444603330864825E-02
  -7.472107565366332E-02  -7.478847104955845E-02  -7.464420274646304E-02
  -7.428587305328602E-02  -7.371283461599372E-02  -7.292630655319385E-02
  -7.192947113992688E-02  -7.072754644722816E-02  -6.932783011977951E-02
  -6.773970932482896E-02  -6.597463185232443E-02  -6.404603341038889E-02
  -6.196921636464935E-02  -5.976117553830192E-02  -5.744036724628135E-02
  -5.502641850526414E-02  -5.253977436405525E-02  -5.000128255634751E-02
  -4.743171620650107E-02  -4.485123713032724E-02  -4.227880437143913E-02
  -3.973153499550947E-02  -3.722402681477950E-02  -3.476765560555038E-02
  -3.236986246906567E-02  -3.003345021053078E-02  -2.775840478415637E-02
  -2.555065660509659E-02  -2.341757746274181E-02  -2.136587783025556E-02
  -1.940155318282799E-02  -1.752983607400066E-02  -1.575515481441775E-02
  -1.408109957364539E-02  -1.251039668824383E-02  -1.104489190743113E-02
  -9.685543240599725E-03  -8.432423988463278E-03  -7.284736441319550E-03
  -6.240836613925549E-03  -5.298270257155790E-03  -4.453820242357520E-03
  -3.703565256143349E-03  -3.042949572472808E-03  -2.466863483816195E-03
  -1.969731737581970E-03  -1.545607611141309E-03  -1.188285379752740E-03
  -8.914256244400565E-04  -6.486660046459702E-04  -4.537495582412898E-04
  -3.006502032323888E-04  -1.836991208152283E-04  -9.770853868112939E-05
  -3.809048056641062E-05  -9.676803410796353E-07   1.740050831619544E-05
   2.258716321573706E-05   1.993581406600775E-05   1.378073266256052E-05
   7.341711160013809E-06   2.632660854207103E-06   3.866520292272746E-07
   0.000000000000000E+00   0.000000000000000E+00   0.000000000000000E+00
   0.000000000000000E+00   0.000000000000000E+00   0.000000000000000E+00
   0.000000000000000E+00   0.000000000000000E+00   0.000000000000000E+00
   0.000000000000000E+00   0.000000000000000E+00   0.000000000000000E+00
   0.000000000000000E+00   0.000000000000000E+00   0.000000000000000E+00
   0.000000000000000E+00   0.000000000000000E+00   0.000000000000000E+00
   0.000000000000000E+00   0.000000000000000E+00   0.000000000000000E+00
   0.000000000000000E+00   0.000000000000000E+00   0.000000000000000E+00
   0.000000000000000E+00   0.000000000000000E+00   0.000000000000000E+00
   0.000000000000000E+00   0.000000000000000E+00   0.000000000000000E+00
   0.000000000000000E+00   0.000000000000000E+00   0.000000000000000E+00
   0.000000000000000E+00   0.000000000000000E+00   0.000000000000000E+00
   0.000000000000000E+00   0.000000000000000E+00   0.000000000000000E+00
   0.000000000000000E+00   0.000000000000000E+00   0.000000000000000E+00
   0.000000000000000E+00   0.000000000000000E+00   0.000000000000000E+00
   0.000000000000000E+00   0.000000000000000E+00   0.000000000000000E+00
   0.000000000000000E+00   0.000000000000000E+00   0.000000000000000E+00
   0.000000000000000E+00   0.000000000000000E+00   0.000000000000000E+00
   0.000000000000000E+00   0.000000000000000E+00   0.000000000000000E+00
   0.000000000000000E+00   0.000000000000000E+00   0.000000000000000E+00
   0.000000000000000E+00   0.000000000000000E+00   0.000000000000000E+00
   0.000000000000000E+00   0.000000000000000E+00   0.000000000000000E+00
   0.000000000000000E+00   0.000000000000000E+00   0.000000000000000E+00
   0.000000000000000E+00   0.000000000000000E+00   0.000000000000000E+00
   0.000000000000000E+00   0.000000000000000E+00   0.000000000000000E+00
   0.000000000000000E+00   0.000000000000000E+00   0.000000000000000E+00
   0.000000000000000E+00   0.000000000000000E+00   0.000000000000000E+00
   0.000000000000000E+00   0.000000000000000E+00   0.000000000000000E+00
   0.000000000000000E+00   0.000000000000000E+00   0.000000000000000E+00
   0.000000000000000E+00   0.000000000000000E+00   0.000000000000000E+00
   0.000000000000000E+00   0.000000000000000E+00   0.000000000000000E+00
   0.000000000000000E+00   0.000000000000000E+00   0.000000000000000E+00
   0.000000000000000E+00   0.000000000000000E+00   0.000000000000000E+00
   0.000000000000000E+00   0.000000000000000E+00   0.000000000000000E+00
   0.000000000000000E+00   0.000000000000000E+00   0.000000000000000E+00
   0.000000000000000E+00   0.000000000000000E+00   0.000000000000000E+00
   0.000000000000000E+00   0.000000000000000E+00   0.000000000000000E+00
   0.000000000000000E+00   0.000000000000000E+00   0.000000000000000E+00
   0.000000000000000E+00   0.000000000000000E+00   0.000000000000000E+00
   0.000000000000000E+00   0.000000000000000E+00   0.000000000000000E+00
   0.000000000000000E+00   0.000000000000000E+00   0.000000000000000E+00
   0.000000000000000E+00   0.000000000000000E+00   0.000000000000000E+00
   0.000000000000000E+00   0.000000000000000E+00   0.000000000000000E+00
   0.000000000000000E+00   0.000000000000000E+00   0.000000000000000E+00
   0.000000000000000E+00   0.000000000000000E+00   0.000000000000000E+00
   0.000000000000000E+00   0.000000000000000E+00   0.000000000000000E+00
   0.000000000000000E+00   0.000000000000000E+00   0.000000000000000E+00
   0.000000000000000E+00   0.000000000000000E+00   0.000000000000000E+00
   0.000000000000000E+00   0.000000000000000E+00   0.000000000000000E+00
   0.000000000000000E+00   0.000000000000000E+00   0.000000000000000E+00
   0.000000000000000E+00   0.000000000000000E+00   0.000000000000000E+00
   0.000000000000000E+00   0.000000000000000E+00   0.000000000000000E+00
   0.000000000000000E+00   0.000000000000000E+00   0.000000000000000E+00
   0.000000000000000E+00   0.000000000000000E+00   0.000000000000000E+00
   0.000000000000000E+00   0.000000000000000E+00   0.000000000000000E+00
   0.000000000000000E+00   0.000000000000000E+00   0.000000000000000E+00
   0.000000000000000E+00   0.000000000000000E+00   0.000000000000000E+00
   0.000000000000000E+00   0.000000000000000E+00   0.000000000000000E+00
   0.000000000000000E+00   0.000000000000000E+00   0.000000000000000E+00
   0.000000000000000E+00   0.000000000000000E+00   0.000000000000000E+00
   0.000000000000000E+00   0.000000000000000E+00   0.000000000000000E+00
   0.000000000000000E+00   0.000000000000000E+00   0.000000000000000E+00
   0.000000000000000E+00   0.000000000000000E+00   0.000000000000000E+00
   0.000000000000000E+00   0.000000000000000E+00   0.000000000000000E+00
   0.000000000000000E+00   0.000000000000000E+00   0.000000000000000E+00
   0.000000000000000E+00   0.000000000000000E+00   0.000000000000000E+00
   0.000000000000000E+00   0.000000000000000E+00   0.000000000000000E+00
   0.000000000000000E+00   0.000000000000000E+00   0.000000000000000E+00
   0.000000000000000E+00   0.000000000000000E+00   0.000000000000000E+00
   0.000000000000000E+00   0.000000000000000E+00   0.000000000000000E+00
   0.000000000000000E+00   0.000000000000000E+00   0.000000000000000E+00
   0.000000000000000E+00   0.000000000000000E+00   0.000000000000000E+00
   0.000000000000000E+00   0.000000000000000E+00   0.000000000000000E+00
   0.000000000000000E+00   0.000000000000000E+00   0.000000000000000E+00
   0.000000000000000E+00   0.000000000000000E+00   0.000000000000000E+00
   0.000000000000000E+00   0.000000000000000E+00   0.000000000000000E+00
   0.000000000000000E+00   0.000000000000000E+00   0.000000000000000E+00
   0.000000000000000E+00   0.000000000000000E+00   0.000000000000000E+00
   0.000000000000000E+00   0.000000000000000E+00   0.000000000000000E+00
   0.000000000000000E+00   0.000000000000000E+00   0.000000000000000E+00
   0.000000000000000E+00   0.000000000000000E+00   0.000000000000000E+00
   0.000000000000000E+00   0.000000000000000E+00   0.000000000000000E+00
   0.000000000000000E+00   0.000000000000000E+00   0.000000000000000E+00
   0.000000000000000E+00   0.000000000000000E+00   0.000000000000000E+00
   0.000000000000000E+00   0.000000000000000E+00   0.000000000000000E+00
   0.000000000000000E+00   0.000000000000000E+00   0.000000000000000E+00
   0.000000000000000E+00   0.000000000000000E+00   0.000000000000000E+00
   0.000000000000000E+00   0.000000000000000E+00   0.000000000000000E+00
   0.000000000000000E+00   0.000000000000000E+00   0.000000000000000E+00
   0.000000000000000E+00   0.000000000000000E+00   0.000000000000000E+00
   0.000000000000000E+00   0.000000000000000E+00   0.000000000000000E+00
   0.000000000000000E+00   0.000000000000000E+00   0.000000000000000E+00
   0.000000000000000E+00   0.000000000000000E+00   0.000000000000000E+00
   0.000000000000000E+00   0.000000000000000E+00   0.000000000000000E+00
   0.000000000000000E+00   0.000000000000000E+00   0.000000000000000E+00
   0.000000000000000E+00   0.000000000000000E+00   0.000000000000000E+00
   0.000000000000000E+00   0.000000000000000E+00   0.000000000000000E+00
   0.000000000000000E+00   0.000000000000000E+00   0.000000000000000E+00
   0.000000000000000E+00   0.000000000000000E+00   0.000000000000000E+00
   0.000000000000000E+00   0.000000000000000E+00   0.000000000000000E+00
   0.000000000000000E+00   0.000000000000000E+00   0.000000000000000E+00
   0.000000000000000E+00   0.000000000000000E+00   0.000000000000000E+00
   0.000000000000000E+00   0.000000000000000E+00   0.000000000000000E+00
   0.000000000000000E+00   0.000000000000000E+00   0.000000000000000E+00
   0.000000000000000E+00   0.000000000000000E+00   0.000000000000000E+00
   0.000000000000000E+00   0.000000000000000E+00   0.000000000000000E+00
   0.000000000000000E+00   0.000000000000000E+00   0.000000000000000E+00
   0.000000000000000E+00   0.000000000000000E+00   0.000000000000000E+00
   0.000000000000000E+00   0.000000000000000E+00   0.000000000000000E+00
   0.000000000000000E+00   0.000000000000000E+00   0.000000000000000E+00
   0.000000000000000E+00   0.000000000000000E+00   0.000000000000000E+00
   0.000000000000000E+00   0.000000000000000E+00   0.000000000000000E+00
   0.000000000000000E+00   0.000000000000000E+00   0.000000000000000E+00
      </PP_QIJL.1.4.1>
      <PP_QIJL.2.2.0 first_index="2" second_index="2" composite_index="3" angular_momentum="0" size="1095">
  -4.037504811256872E-08  -4.139714725072897E-08  -4.244512094812000E-08
  -4.351962422214053E-08  -4.462132867202436E-08  -4.575092289861064E-08
  -4.690911293474109E-08  -4.809662268655295E-08  -4.931419438594268E-08
  -5.056258905448473E-08  -5.184258697909323E-08  -5.315498819972603E-08
  -5.450061300943473E-08  -5.588030246707327E-08  -5.729491892298637E-08
  -5.874534655800480E-08  -6.023249193608625E-08  -6.175728457094597E-08
  -6.332067750703155E-08  -6.492364791520568E-08  -6.656719770350766E-08
  -6.825235414337725E-08  -6.998017051173093E-08  -7.175172674929252E-08
  -7.356813013558971E-08  -7.543051598103713E-08  -7.734004833654085E-08
  -7.929792072106573E-08  -8.130535686762107E-08  -8.336361148813188E-08
  -8.547397105767121E-08  -8.763775461854694E-08  -8.985631460474302E-08
  -9.213103768723196E-08  -9.446334564068644E-08  -9.685469623213101E-08
  -9.930658413209065E-08  -1.018205418488052E-07  -1.043981406860928E-07
  -1.070409917254623E-07  -1.097507468330871E-07  -1.125290996922708E-07
  -1.153777868620503E-07  -1.182985888625963E-07  -1.212933312880920E-07
  -1.243638859477826E-07  -1.275121720359118E-07  -1.307401573312751E-07
  -1.340498594271384E-07  -1.374433469922946E-07  -1.409227410640399E-07
  -1.444902163738855E-07  -1.481480027068274E-07  -1.518983862950262E-07
  -1.557437112467696E-07  -1.596863810116057E-07  -1.637288598825691E-07
  -1.678736745364342E-07  -1.721234156129596E-07  -1.764807393341132E-07
  -1.809483691642835E-07  -1.855290975125235E-07  -1.902257874778838E-07
  -1.950413746389295E-07  -1.999788688885598E-07  -2.050413563152723E-07
  -2.102320011320547E-07  -2.155540476541048E-07  -2.210108223266153E-07
  -2.266057358038946E-07  -2.323422850811150E-07  -2.382240556800310E-07
  -2.442547238900260E-07  -2.504380590658899E-07  -2.567779259837681E-07
  -2.632782872567456E-07  -2.699432058115854E-07  -2.767768474281633E-07
  -2.837834833431868E-07  -2.909674929198306E-07  -2.983333663849464E-07
  -3.058857076355711E-07  -3.136292371164768E-07  -3.215687947705671E-07
  -3.297093430639623E-07  -3.380559700876601E-07  -3.466138927377180E-07
  -3.553884599759394E-07  -3.643851561731016E-07  -3.736096045368201E-07
  -3.830675706261823E-07  -3.927649659553576E-07  -4.027078516884301E-07
  -4.129024424277633E-07  -4.233551100982694E-07  -4.340723879299999E-07
  -4.450609745415617E-07  -4.563277381268982E-07  -4.678797207480574E-07
  -4.797241427366340E-07  -4.918684072066212E-07  -5.043201046815148E-07
  -5.170870178385424E-07  -5.301771263729918E-07  -5.435986119856820E-07
  -5.573598634966786E-07  -5.714694820884699E-07  -5.859362866818655E-07
  -6.007693194479830E-07  -6.159778514597715E-07  -6.315713884865896E-07
  -6.475596769354780E-07  -6.639527099428288E-07  -6.807607336202577E-07
  -6.979942534585936E-07  -7.156640408939672E-07  -7.337811400401263E-07
  -7.523568745911700E-07  -7.714028548990171E-07  -7.909309852300424E-07
  -8.109534712053949E-07  -8.314828274296733E-07  -8.525318853127064E-07
  -8.741138010893372E-07  -8.962420640422239E-07  -9.189305049327786E-07
  -9.421933046455407E-07  -9.660450030513666E-07  -9.905005080949802E-07
  -1.015575105112571E-06  -1.041284466385242E-06  -1.067644660934304E-06
  -1.094672164564522E-06  -1.122383870161588E-06  -1.150797098250274E-06
  -1.179929607819829E-06  -1.209799607423421E-06  -1.240425766558545E-06
  -1.271827227335501E-06  -1.304023616441249E-06  -1.337035057406103E-06
  -1.370882183180941E-06  -1.405586149032785E-06  -1.441168645766813E-06
  -1.477651913283059E-06  -1.515058754476273E-06  -1.553412549487640E-06
  -1.592737270317248E-06  -1.633057495806437E-06  -1.674398426999412E-06
  -1.716785902893683E-06  -1.760246416589205E-06  -1.804807131846303E-06
  -1.850495900062706E-06  -1.897341277680348E-06  -1.945372544032736E-06
  -1.994619719644116E-06  -2.045113584991828E-06  -2.096885699743576E-06
  -2.149968422481647E-06  -2.204394930926385E-06  -2.260199242671573E-06
  -2.317416236444679E-06  -2.376081673905220E-06  -2.436232221994937E-06
  -2.497905475853603E-06  -2.561139982314997E-06  -2.625975263997489E-06
  -2.692451844004458E-06  -2.760611271249928E-06  -2.830496146425158E-06
  -2.902150148622599E-06  -2.975618062633629E-06  -3.050945806937282E-06
  -3.128180462397427E-06  -3.207370301686202E-06  -3.288564819452331E-06
  -3.371814763252879E-06  -3.457172165268004E-06  -3.544690374818417E-06
  -3.634424091705800E-06  -3.726429400397223E-06  -3.820763805074623E-06
  -3.917486265571490E-06  -4.016657234219104E-06  -4.118338693625246E-06
  -4.222594195409254E-06  -4.329488899917268E-06  -4.439089616942753E-06
  -4.551464847477630E-06  -4.666684826519986E-06  -4.784821566965389E-06
  -4.905948904608844E-06  -5.030142544285828E-06  -5.157480107181060E-06
  -5.288041179334483E-06  -5.421907361375022E-06  -5.559162319512824E-06
  -5.699891837822105E-06  -5.844183871847187E-06  -5.992128603564977E-06
  -6.143818497738697E-06  -6.299348359697458E-06  -6.458815394578253E-06
  -6.622319268067139E-06  -6.789962168677411E-06  -6.961848871604067E-06
  -7.138086804193912E-06  -7.318786113072589E-06  -7.504059732970310E-06
  -7.694023457289030E-06  -7.888796010455684E-06  -8.088499122105943E-06
  -8.293257603145385E-06  -8.503199423735317E-06  -8.718455793251745E-06
  -8.939161242267963E-06  -9.165453706611212E-06  -9.397474613546462E-06
  -9.635368970140877E-06  -9.879285453863893E-06  -1.012937650548009E-05
  -1.038579842429199E-05  -1.064871146579287E-05  -1.091827994179042E-05
  -1.119467232306320E-05  -1.147806134461489E-05  -1.176862411359101E-05
  -1.206654221992615E-05  -1.237200184979055E-05  -1.268519390190640E-05
  -1.300631410680734E-05  -1.333556314911442E-05  -1.367314679290567E-05
  -1.401927601025726E-05  -1.437416711303586E-05  -1.473804188802557E-05
  -1.511112773547228E-05  -1.549365781113301E-05  -1.588587117191834E-05
  -1.628801292521832E-05  -1.670033438200614E-05  -1.712309321381358E-05
  -1.755655361367715E-05  -1.800098646115496E-05  -1.845666949151680E-05
  -1.892388746921357E-05  -1.940293236573347E-05  -1.989410354195633E-05
  -2.039770793511951E-05  -2.091406025051170E-05  -2.144348315801443E-05
  -2.198630749361328E-05  -2.254287246600483E-05  -2.311352586842760E-05
  -2.369862429584914E-05  -2.429853336764458E-05  -2.491362795590503E-05
  -2.554429241951836E-05  -2.619092084416790E-05  -2.685391728839836E-05
  -2.753369603590246E-05  -2.823068185418492E-05  -2.894531025976515E-05
  -2.967802779008356E-05  -3.042929228228029E-05  -3.119957315902064E-05
  -3.198935172154400E-05  -3.279912145011943E-05  -3.362938831209430E-05
  -3.448067107772740E-05  -3.535350164400353E-05  -3.624842536663007E-05
  -3.716600140042257E-05  -3.810680304829067E-05  -3.907141811904082E-05
  -4.006044929421912E-05  -4.107451450422084E-05  -4.211424731390146E-05
  -4.318029731792812E-05  -4.427333054611660E-05  -4.539402987900671E-05
  -4.654309547393232E-05  -4.772124520185224E-05  -4.892921509521172E-05
  -5.016775980711274E-05  -5.143765308207862E-05  -5.273968823870352E-05
  -5.407467866448744E-05  -5.544345832316290E-05  -5.684688227482716E-05
  -5.828582720920371E-05  -5.976119199236171E-05  -6.127389822723323E-05
  -6.282489082827518E-05  -6.441513861063066E-05  -6.604563489415635E-05
  -6.771739812268723E-05  -6.943147249892401E-05  -7.118892863533467E-05
  -7.299086422147219E-05  -7.483840470812257E-05  -7.673270400870384E-05
  -7.867494521835107E-05  -8.066634135113071E-05  -8.270813609583880E-05
  -8.480160459085130E-05  -8.694805421850217E-05  -8.914882541948166E-05
  -9.140529252775508E-05  -9.371886462651712E-05  -9.609098642571036E-05
  -9.852313916164598E-05  -1.010168415192828E-04  -1.035736505777317E-04
  -1.061951627795656E-04  -1.088830149245337E-04  -1.116388851882880E-04
  -1.144644941667505E-04  -1.173616059467607E-04  -1.203320292036615E-04
  -1.233776183264974E-04  -1.265002745715128E-04  -1.297019472446613E-04
  -1.329846349138468E-04  -1.363503866516415E-04  -1.398013033092394E-04
  -1.433395388224255E-04  -1.469673015503601E-04  -1.506868556479943E-04
  -1.545005224729573E-04  -1.584106820277701E-04  -1.624197744382706E-04
  -1.665303014691471E-04  -1.707448280775053E-04  -1.750659840054153E-04
  -1.794964654124029E-04  -1.840390365488856E-04  -1.886965314715620E-04
  -1.934718558018004E-04  -1.983679885280939E-04  -2.033879838536682E-04
  -2.085349730903704E-04  -2.138121665999774E-04  -2.192228557841009E-04
  -2.247704151238922E-04  -2.304583042707721E-04  -2.362900701894561E-04
  -2.422693493545570E-04  -2.483998700020924E-04  -2.546854544372507E-04
  -2.611300213997966E-04  -2.677375884885433E-04  -2.745122746463394E-04
  -2.814583027070596E-04  -2.885800020061249E-04  -2.958818110561066E-04
  -3.033682802890166E-04  -3.110440748669158E-04  -3.189139775625118E-04
  -3.269828917114634E-04  -3.352558442381368E-04  -3.437379887566167E-04
  -3.524346087488016E-04  -3.613511208214636E-04  -3.704930780442018E-04
  -3.798661733702419E-04  -3.894762431421149E-04  -3.993292706842594E-04
  -4.094313899846624E-04  -4.197888894676955E-04  -4.304082158603440E-04
  -4.412959781540995E-04  -4.524589516648095E-04  -4.639040821928556E-04
  -4.756384902860700E-04  -4.876694756078553E-04  -5.000045214130424E-04
  -5.126512991340598E-04  -5.256176730800573E-04  -5.389117052516860E-04
  -5.525416602742801E-04  -5.665160104522804E-04  -5.808434409477663E-04
  -5.955328550860477E-04  -6.105933797913255E-04  -6.260343711555045E-04
  -6.418654201432806E-04  -6.580963584367424E-04  -6.747372644227425E-04
  -6.917984693263997E-04  -7.092905634941563E-04  -7.272244028298688E-04
  -7.456111153875206E-04  -7.644621081241818E-04  -7.837890738169435E-04
  -8.036039981476179E-04  -8.239191669590711E-04  -8.447471736871519E-04
  -8.661009269722403E-04  -8.879936584545256E-04  -9.104389307572247E-04
  -9.334506456619848E-04  -9.570430524808747E-04  -9.812307566293749E-04
  -1.006028728404918E-03  -1.031452311975595E-03  -1.057517234583716E-03
  -1.084239615969045E-03  -1.111635978016576E-03  -1.139723254633806E-03
  -1.168518801862610E-03  -1.198040408230806E-03  -1.228306305348709E-03
  -1.259335178755968E-03  -1.291146179024120E-03  -1.323758933120389E-03
  -1.357193556038289E-03  -1.391470662700783E-03  -1.426611380141745E-03
  -1.462637359971604E-03  -1.499570791133160E-03  -1.537434412953575E-03
  -1.576251528498741E-03  -1.616046018236200E-03  -1.656842354012967E-03
  -1.698665613354637E-03  -1.741541494092233E-03  -1.785496329323414E-03
  -1.830557102714621E-03  -1.876751464150909E-03  -1.924107745740257E-03
  -1.972654978179168E-03  -2.022422907486555E-03  -2.073442012112841E-03
  -2.125743520431347E-03  -2.179359428619084E-03  -2.234322518934052E-03
  -2.290666378396302E-03  -2.348425417879970E-03  -2.407634891623542E-03
  -2.468330917165694E-03  -2.530550495713936E-03  -2.594331532953498E-03
  -2.659712860303712E-03  -2.726734256629232E-03  -2.795436470413446E-03
  -2.865861242401282E-03  -2.938051328718756E-03  -3.012050524476392E-03
  -3.087903687863682E-03  -3.165656764741682E-03  -3.245356813740631E-03
  -3.327052031869588E-03  -3.410791780644758E-03  -3.496626612743138E-03
  -3.584608299187988E-03  -3.674789857072313E-03  -3.767225577826563E-03
  -3.861971056036327E-03  -3.959083218815667E-03  -4.058620355741507E-03
  -4.160642149353976E-03  -4.265209706227659E-03  -4.372385588617942E-03
  -4.482233846686564E-03  -4.594820051309921E-03  -4.710211327473171E-03
  -4.828476388252912E-03  -4.949685569390387E-03  -5.073910864456814E-03
  -5.201225960611741E-03  -5.331706274954561E-03  -5.465428991468868E-03
  -5.602473098558249E-03  -5.742919427171512E-03  -5.886850689514422E-03
  -6.034351518343875E-03  -6.185508506839841E-03  -6.340410249048887E-03
  -6.499147380892216E-03  -6.661812621729917E-03  -6.828500816471560E-03
  -6.999308978222359E-03  -7.174336331452122E-03  -7.353684355673013E-03
  -7.537456829610382E-03  -7.725759875848944E-03  -7.918702005935146E-03
  -8.116394165914115E-03  -8.318949782277794E-03  -8.526484808298509E-03
  -8.739117770719725E-03  -8.956969816773637E-03  -9.180164761492176E-03
  -9.408829135275394E-03  -9.643092231678441E-03  -9.883086155374683E-03
  -1.012894587024999E-02  -1.038080924757906E-02  -1.063881711423144E-02
  -1.090311330085083E-02  -1.117384468994722E-02  -1.145116126383739E-02
  -1.173521615236435E-02  -1.202616568032207E-02  -1.232416941450649E-02
  -1.262939021030866E-02  -1.294199425776068E-02  -1.326215112693879E-02
  -1.359003381262246E-02  -1.392581877810148E-02  -1.426968599801673E-02
  -1.462181900011324E-02  -1.498240490577664E-02  -1.535163446921663E-02
  -1.572970211515309E-02  -1.611680597485150E-02  -1.651314792034647E-02
  -1.691893359668204E-02  -1.733437245198825E-02  -1.775967776520345E-02
  -1.819506667124075E-02  -1.864076018338689E-02  -1.909698321270958E-02
  -1.956396458423764E-02  -2.004193704966609E-02  -2.053113729632465E-02
  -2.103180595213548E-02  -2.154418758627098E-02  -2.206853070520858E-02
  -2.260508774386358E-02  -2.315411505146553E-02  -2.371587287182737E-02
  -2.429062531763911E-02  -2.487864033840015E-02  -2.548018968158638E-02
  -2.609554884662834E-02  -2.672499703125813E-02  -2.736881706976135E-02
  -2.802729536264986E-02  -2.870072179724951E-02  -2.938938965867369E-02
  -3.009359553063176E-02  -3.081363918549652E-02  -3.154982346303072E-02
  -3.230245413714787E-02  -3.307183977005546E-02  -3.385829155310433E-02
  -3.466212313363855E-02  -3.548365042711390E-02  -3.632319141372455E-02
  -3.718106591874736E-02  -3.805759537578608E-02  -3.895310257206593E-02
  -3.986791137489944E-02  -4.080234643841439E-02  -4.175673288960236E-02
  -4.273139599271692E-02  -4.372666079101814E-02  -4.474285172482879E-02
  -4.578029222483759E-02  -4.683930427955145E-02  -4.792020797577110E-02
  -4.902332101093178E-02  -5.014895817612165E-02  -5.129743080856329E-02
  -5.246904621231285E-02  -5.366410704590870E-02  -5.488291067567281E-02
  -5.612574849334680E-02  -5.739290519672291E-02  -5.868465803190918E-02
  -6.000127599585499E-02  -6.134301899774567E-02  -6.271013697786754E-02
  -6.410286898253670E-02  -6.552144219368179E-02  -6.696607091167586E-02
  -6.843695549001687E-02  -6.993428122047043E-02  -7.145821716730932E-02
  -7.300891494930649E-02  -7.458650746817701E-02  -7.619110758220213E-02
  -7.782280672382172E-02  -7.948167346004184E-02  -8.116775199457367E-02
  -8.288106061070621E-02  -8.462159005400732E-02  -8.638930185405706E-02
  -8.818412658454242E-02  -9.000596206117641E-02  -9.185467147706695E-02
  -9.373008147532647E-02  -9.563198015891140E-02  -9.756011503789078E-02
  -9.951419091457672E-02  -1.014938677072112E-01  -1.034987582131808E-01
  -1.055284258130430E-01  -1.075823821169826E-01  -1.096600845556782E-01
  -1.117609339179623E-01  -1.138842718380759E-01  -1.160293782357890E-01
  -1.181954687131494E-01  -1.203816919121575E-01  -1.225871268382390E-01
  -1.248107801549950E-01  -1.270515834563658E-01  -1.293083905230399E-01
  -1.315799745706751E-01  -1.338650254982904E-01  -1.361621471460104E-01
  -1.384698545722243E-01  -1.407865713611446E-01  -1.431106269727199E-01
  -1.454402541478770E-01  -1.477735863831287E-01  -1.501086554896963E-01
  -1.524433892534512E-01  -1.547756092131745E-01  -1.571030285758772E-01
  -1.594232502891937E-01  -1.617337652921755E-01  -1.640319509671465E-01
  -1.663150698166461E-01  -1.685802683908682E-01  -1.708245764923896E-01
  -1.730449066863787E-01  -1.752380541458588E-01  -1.774006968629609E-01
  -1.795293962584449E-01  -1.816205982230494E-01  -1.836706346254632E-01
  -1.856757253228636E-01  -1.876319807110168E-01  -1.895354048518794E-01
  -1.913818992174309E-01  -1.931672670890996E-01  -1.948872186525863E-01
  -1.965373768280993E-01  -1.981132838759886E-01  -1.996104088174331E-01
  -2.010241557091965E-01  -2.023498728104592E-01  -2.035828626783229E-01
  -2.047183932267425E-01  -2.057517097812942E-01  -2.066780481593287E-01
  -2.074926488016086E-01  -2.081907719774555E-01  -2.087677140806906E-01
  -2.092188250281809E-01  -2.095395267665682E-01  -2.097253328857095E-01
  -2.097718693294447E-01  -2.096748961855014E-01  -2.094303305266062E-01
  -2.090342702641634E-01  -2.084830189641648E-01  -2.077731115622981E-01
  -2.069013409015102E-01  -2.058647850005700E-01  -2.046608349464836E-01
  -2.032872232869763E-01  -2.017420527817272E-01  -2.000238253526977E-01
  -1.981314710548415E-01  -1.960643768688310E-01  -1.938224150973472E-01
  -1.914059711261507E-01  -1.888159702907640E-01  -1.860539035694546E-01
  -1.831218518035647E-01  -1.800225081274292E-01  -1.767591982725787E-01
  -1.733358983949629E-01  -1.697572500601386E-01  -1.660285720101369E-01
  -1.621558683276745E-01  -1.581458326090923E-01  -1.540058477574480E-01
  -1.497439810123204E-01  -1.453689738436714E-01  -1.408902263543061E-01
  -1.363177758597861E-01  -1.316622693466595E-01  -1.269349295503689E-01
  -1.221475144436336E-01  -1.173122699850901E-01  -1.124418760469077E-01
  -1.075493855191950E-01  -1.026481566784900E-01  -9.775177900726474E-02
  -9.287399276089491E-02  -8.802860269727703E-02  -8.322938651115885E-02
  -7.848999864898648E-02  -7.382387031870107E-02  -6.924410665015523E-02
  -6.476338210277403E-02  -6.039383535416516E-02  -5.614696503260901E-02
  -5.203352777278758E-02  -4.806344017238154E-02  -4.424568630111386E-02
  -4.058823245659006E-02  -3.709795086561039E-02  -3.378055398746763E-02
  -3.064054097888480E-02  -2.768115772014059E-02  -2.490437156997573E-02
  -2.231086170490148E-02  -1.990002549876781E-02  -1.767000090431104E-02
  -1.561770420472358E-02  -1.373888180697119E-02  -1.202817394927257E-02
  -1.047918729588704E-02  -9.084572400377515E-03  -7.836100946158275E-03
  -6.724736538621670E-03  -5.740691651633864E-03  -4.873462155490949E-03
  -4.111829715083413E-03  -3.443821296807262E-03  -2.857902008367025E-03
  -2.347050484064389E-03  -1.905448552417810E-03  -1.527305476855118E-03
  -1.206890074010036E-03  -9.385633401127746E-04  -7.168116209329278E-04
  -5.362803212062145E-04  -3.918080894304427E-04  -2.784613323387891E-04
  -1.915692843746236E-04  -1.267593464490679E-04  -7.998881656108570E-05
  -4.757423839517327E-05  -2.622274888420401E-05  -1.305615636661150E-05
  -5.630478752467749E-06  -1.947572868664371E-06  -4.566857622068099E-07
  -4.302509066557436E-08   0.000000000000000E+00   0.000000000000000E+00
   0.000000000000000E+00   0.000000000000000E+00   0.000000000000000E+00
   0.000000000000000E+00   0.000000000000000E+00   0.000000000000000E+00
   0.000000000000000E+00   0.000000000000000E+00   0.000000000000000E+00
   0.000000000000000E+00   0.000000000000000E+00   0.000000000000000E+00
   0.000000000000000E+00   0.000000000000000E+00   0.000000000000000E+00
   0.000000000000000E+00   0.000000000000000E+00   0.000000000000000E+00
   0.000000000000000E+00   0.000000000000000E+00   0.000000000000000E+00
   0.000000000000000E+00   0.000000000000000E+00   0.000000000000000E+00
   0.000000000000000E+00   0.000000000000000E+00   0.000000000000000E+00
   0.000000000000000E+00   0.000000000000000E+00   0.000000000000000E+00
   0.000000000000000E+00   0.000000000000000E+00   0.000000000000000E+00
   0.000000000000000E+00   0.000000000000000E+00   0.000000000000000E+00
   0.000000000000000E+00   0.000000000000000E+00   0.000000000000000E+00
   0.000000000000000E+00   0.000000000000000E+00   0.000000000000000E+00
   0.000000000000000E+00   0.000000000000000E+00   0.000000000000000E+00
   0.000000000000000E+00   0.000000000000000E+00   0.000000000000000E+00
   0.000000000000000E+00   0.000000000000000E+00   0.000000000000000E+00
   0.000000000000000E+00   0.000000000000000E+00   0.000000000000000E+00
   0.000000000000000E+00   0.000000000000000E+00   0.000000000000000E+00
   0.000000000000000E+00   0.000000000000000E+00   0.000000000000000E+00
   0.000000000000000E+00   0.000000000000000E+00   0.000000000000000E+00
   0.000000000000000E+00   0.000000000000000E+00   0.000000000000000E+00
   0.000000000000000E+00   0.000000000000000E+00   0.000000000000000E+00
   0.000000000000000E+00   0.000000000000000E+00   0.000000000000000E+00
   0.000000000000000E+00   0.000000000000000E+00   0.000000000000000E+00
   0.000000000000000E+00   0.000000000000000E+00   0.000000000000000E+00
   0.000000000000000E+00   0.000000000000000E+00   0.000000000000000E+00
   0.000000000000000E+00   0.000000000000000E+00   0.000000000000000E+00
   0.000000000000000E+00   0.000000000000000E+00   0.000000000000000E+00
   0.000000000000000E+00   0.000000000000000E+00   0.000000000000000E+00
   0.000000000000000E+00   0.000000000000000E+00   0.000000000000000E+00
   0.000000000000000E+00   0.000000000000000E+00   0.000000000000000E+00
   0.000000000000000E+00   0.000000000000000E+00   0.000000000000000E+00
   0.000000000000000E+00   0.000000000000000E+00   0.000000000000000E+00
   0.000000000000000E+00   0.000000000000000E+00   0.000000000000000E+00
   0.000000000000000E+00   0.000000000000000E+00   0.000000000000000E+00
   0.000000000000000E+00   0.000000000000000E+00   0.000000000000000E+00
   0.000000000000000E+00   0.000000000000000E+00   0.000000000000000E+00
   0.000000000000000E+00   0.000000000000000E+00   0.000000000000000E+00
   0.000000000000000E+00   0.000000000000000E+00   0.000000000000000E+00
   0.000000000000000E+00   0.000000000000000E+00   0.000000000000000E+00
   0.000000000000000E+00   0.000000000000000E+00   0.000000000000000E+00
   0.000000000000000E+00   0.000000000000000E+00   0.000000000000000E+00
   0.000000000000000E+00   0.000000000000000E+00   0.000000000000000E+00
   0.000000000000000E+00   0.000000000000000E+00   0.000000000000000E+00
   0.000000000000000E+00   0.000000000000000E+00   0.000000000000000E+00
   0.000000000000000E+00   0.000000000000000E+00   0.000000000000000E+00
   0.000000000000000E+00   0.000000000000000E+00   0.000000000000000E+00
   0.000000000000000E+00   0.000000000000000E+00   0.000000000000000E+00
   0.000000000000000E+00   0.000000000000000E+00   0.000000000000000E+00
   0.000000000000000E+00   0.000000000000000E+00   0.000000000000000E+00
   0.000000000000000E+00   0.000000000000000E+00   0.000000000000000E+00
   0.000000000000000E+00   0.000000000000000E+00   0.000000000000000E+00
   0.000000000000000E+00   0.000000000000000E+00   0.000000000000000E+00
   0.000000000000000E+00   0.000000000000000E+00   0.000000000000000E+00
   0.000000000000000E+00   0.000000000000000E+00   0.000000000000000E+00
   0.000000000000000E+00   0.000000000000000E+00   0.000000000000000E+00
   0.000000000000000E+00   0.000000000000000E+00   0.000000000000000E+00
   0.000000000000000E+00   0.000000000000000E+00   0.000000000000000E+00
   0.000000000000000E+00   0.000000000000000E+00   0.000000000000000E+00
   0.000000000000000E+00   0.000000000000000E+00   0.000000000000000E+00
   0.000000000000000E+00   0.000000000000000E+00   0.000000000000000E+00
   0.000000000000000E+00   0.000000000000000E+00   0.000000000000000E+00
   0.000000000000000E+00   0.000000000000000E+00   0.000000000000000E+00
   0.000000000000000E+00   0.000000000000000E+00   0.000000000000000E+00
   0.000000000000000E+00   0.000000000000000E+00   0.000000000000000E+00
   0.000000000000000E+00   0.000000000000000E+00   0.000000000000000E+00
   0.000000000000000E+00   0.000000000000000E+00   0.000000000000000E+00
   0.000000000000000E+00   0.000000000000000E+00   0.000000000000000E+00
   0.000000000000000E+00   0.000000000000000E+00   0.000000000000000E+00
   0.000000000000000E+00   0.000000000000000E+00   0.000000000000000E+00
   0.000000000000000E+00   0.000000000000000E+00   0.000000000000000E+00
   0.000000000000000E+00   0.000000000000000E+00   0.000000000000000E+00
   0.000000000000000E+00   0.000000000000000E+00   0.000000000000000E+00
   0.000000000000000E+00   0.000000000000000E+00   0.000000000000000E+00
   0.000000000000000E+00   0.000000000000000E+00   0.000000000000000E+00
   0.000000000000000E+00   0.000000000000000E+00   0.000000000000000E+00
   0.000000000000000E+00   0.000000000000000E+00   0.000000000000000E+00
   0.000000000000000E+00   0.000000000000000E+00   0.000000000000000E+00
   0.000000000000000E+00   0.000000000000000E+00   0.000000000000000E+00
   0.000000000000000E+00   0.000000000000000E+00   0.000000000000000E+00
   0.000000000000000E+00   0.000000000000000E+00   0.000000000000000E+00
   0.000000000000000E+00   0.000000000000000E+00   0.000000000000000E+00
   0.000000000000000E+00   0.000000000000000E+00   0.000000000000000E+00
   0.000000000000000E+00   0.000000000000000E+00   0.000000000000000E+00
   0.000000000000000E+00   0.000000000000000E+00   0.000000000000000E+00
   0.000000000000000E+00   0.000000000000000E+00   0.000000000000000E+00
   0.000000000000000E+00   0.000000000000000E+00   0.000000000000000E+00
   0.000000000000000E+00   0.000000000000000E+00   0.000000000000000E+00
   0.000000000000000E+00   0.000000000000000E+00   0.000000000000000E+00
   0.000000000000000E+00   0.000000000000000E+00   0.000000000000000E+00
   0.000000000000000E+00   0.000000000000000E+00   0.000000000000000E+00
   0.000000000000000E+00   0.000000000000000E+00   0.000000000000000E+00
   0.000000000000000E+00   0.000000000000000E+00   0.000000000000000E+00
   0.000000000000000E+00   0.000000000000000E+00   0.000000000000000E+00
   0.000000000000000E+00   0.000000000000000E+00   0.000000000000000E+00
   0.000000000000000E+00   0.000000000000000E+00   0.000000000000000E+00
   0.000000000000000E+00   0.000000000000000E+00   0.000000000000000E+00
   0.000000000000000E+00   0.000000000000000E+00   0.000000000000000E+00
   0.000000000000000E+00   0.000000000000000E+00   0.000000000000000E+00
   0.000000000000000E+00   0.000000000000000E+00   0.000000000000000E+00
   0.000000000000000E+00   0.000000000000000E+00   0.000000000000000E+00
   0.000000000000000E+00   0.000000000000000E+00   0.000000000000000E+00
   0.000000000000000E+00   0.000000000000000E+00   0.000000000000000E+00
   0.000000000000000E+00   0.000000000000000E+00   0.000000000000000E+00
   0.000000000000000E+00   0.000000000000000E+00   0.000000000000000E+00
   0.000000000000000E+00   0.000000000000000E+00   0.000000000000000E+00
   0.000000000000000E+00   0.000000000000000E+00   0.000000000000000E+00
   0.000000000000000E+00   0.000000000000000E+00   0.000000000000000E+00
   0.000000000000000E+00   0.000000000000000E+00   0.000000000000000E+00
   0.000000000000000E+00   0.000000000000000E+00   0.000000000000000E+00
   0.000000000000000E+00   0.000000000000000E+00   0.000000000000000E+00
   0.000000000000000E+00   0.000000000000000E+00   0.000000000000000E+00
   0.000000000000000E+00   0.000000000000000E+00   0.000000000000000E+00
   0.000000000000000E+00   0.000000000000000E+00   0.000000000000000E+00
      </PP_QIJL.2.2.0>
      <PP_QIJL.2.3.1 first_index="2" second_index="3" composite_index="5" angular_momentum="1" size="1095">
   3.332700646848393E-12   3.460049780729446E-12   3.592265178471356E-12
   3.729532789678366E-12   3.872045669456852E-12   4.020004249930476E-12
   4.173616622130513E-12   4.333098828657759E-12   4.498675167527563E-12
   4.670578507625472E-12   4.849050616216901E-12   5.034342498971695E-12
   5.226714752981650E-12   5.426437933267495E-12   5.633792933290904E-12
   5.849071380006427E-12   6.072576044009293E-12   6.304621265355666E-12
   6.545533395654308E-12   6.795651257051493E-12   7.055326618754467E-12
   7.324924691763914E-12   7.604824642511049E-12   7.895420126121752E-12
   8.197119840057833E-12   8.510348098913780E-12   8.835545431177826E-12
   9.173169198796247E-12   9.523694240412411E-12   9.887613539185303E-12
   1.026543891612649E-11   1.065770174993095E-11   1.106495372431394E-11
   1.148776760390504E-11   1.192673803979058E-11   1.238248240583726E-11
   1.285564166697341E-11   1.334688128064882E-11   1.385689213274101E-11
   1.438639150922448E-11   1.493612410496875E-11   1.550686307108499E-11
   1.609941110229338E-11   1.671460156584088E-11   1.735329967355725E-11
   1.801640369869704E-11   1.870484623927975E-11   1.941959552970445E-11
   2.016165680248349E-11   2.093207370201083E-11   2.173192975235259E-11
   2.256234988112498E-11   2.342450200160224E-11   2.431959865527962E-11
   2.524889871720217E-11   2.621370916645651E-11   2.721538692431684E-11
   2.825534076262965E-11   2.933503328512114E-11   3.045598298441426E-11
   3.161976637764741E-11   3.282802022369954E-11   3.408244382513916E-11
   3.538480141813467E-11   3.673692465368793E-11   3.814071517367921E-11
   3.959814728534823E-11   4.111127073797132E-11   4.268221360564005E-11
   4.431318528019679E-11   4.600647957853384E-11   4.776447796862942E-11
   4.958965291885505E-11   5.148457137526572E-11   5.345189837176426E-11
   5.549440077821411E-11   5.761495119177581E-11   5.981653197693691E-11
   6.210223945991820E-11   6.447528828335585E-11   6.693901592738168E-11
   6.949688740346278E-11   7.215250012759956E-11   7.490958897973668E-11
   7.777203155650287E-11   8.074385362466484E-11   8.382923478296780E-11
   8.703251434032322E-11   9.035819741861108E-11   9.381096128868088E-11
   9.739566194845885E-11   1.011173409524168E-10   1.049812325020045E-10
   1.089927708070180E-10   1.131575977282576E-10   1.174815707122219E-10
   1.219707710289994E-10   1.266315123249411E-10   1.314703495021431E-10
   1.364940879372290E-10   1.417097930523905E-10   1.471248002521554E-10
   1.527467252398510E-10   1.585834747282736E-10   1.646432575596297E-10
   1.709345962503801E-10   1.774663389772328E-10   1.842476720211335E-10
   1.912881326867572E-10   1.985976227156728E-10   2.061864222120355E-10
   2.140652041004032E-10   2.222450491360000E-10   2.307374614885410E-10
   2.395543849215345E-10   2.487082195898096E-10   2.582118394789012E-10
   2.680786105108110E-10   2.783224093416087E-10   2.889576428773121E-10
   2.999992685354848E-10   3.114628152810542E-10   3.233644054659266E-10
   3.357207775031158E-10   3.485493094072738E-10   3.618680432347191E-10
   3.756957104573494E-10   3.900517583061059E-10   4.049563771210473E-10
   4.204305287464932E-10   4.364959760111591E-10   4.531753133347589E-10
   4.704919985041023E-10   4.884703856633772E-10   5.071357595650194E-10
   5.265143711293146E-10   5.466334743627647E-10   5.675213646871219E-10
   5.892074187329892E-10   6.117221356539627E-10   6.350971800193888E-10
   6.593654263460840E-10   6.845610053316207E-10   7.107193518541981E-10
   7.378772548066095E-10   7.660729088343594E-10   7.953459680507172E-10
   8.257376018042240E-10   8.572905525770744E-10   8.900491960958103E-10
   9.240596037388215E-10   9.593696073284493E-10   9.960288663987795E-10
   1.034088938033723E-09   1.073603349373609E-09   1.114627672892195E-09
   1.157219604550030E-09   1.201439044933989E-09   1.247348183497130E-09
   1.295011586017308E-09   1.344496285397508E-09   1.395871875935629E-09
   1.449210611196224E-09   1.504587505621839E-09   1.562080440026864E-09
   1.621770271122132E-09   1.683740945224436E-09   1.748079616310666E-09
   1.814876768582714E-09   1.884226343715430E-09   1.956225872966477E-09
   2.030976614334035E-09   2.108583694954971E-09   2.189156258943889E-09
   2.272807620880853E-09   2.359655425163516E-09   2.449821811447952E-09
   2.543433586410477E-09   2.640622402072246E-09   2.741524940937223E-09
   2.846283108203758E-09   2.955044231320269E-09   3.067961267165268E-09
   3.185193017143299E-09   3.306904350499103E-09   3.433266436163835E-09
   3.564456983459668E-09   3.700660492000731E-09   3.842068511142073E-09
   3.988879909341327E-09   4.141301153811543E-09   4.299546600858818E-09
   4.463838797312338E-09   4.634408793471042E-09   4.811496468006690E-09
   4.995350865279917E-09   5.186230545543933E-09   5.384403948527605E-09
   5.590149770909508E-09   5.803757358213410E-09   6.025527111675842E-09
   6.255770910658358E-09   6.494812551197403E-09   6.742988201309006E-09
   7.000646873687956E-09   7.268150916465717E-09   7.545876522717575E-09
   7.834214259434315E-09   8.133569616702661E-09   8.444363577866115E-09
   8.767033211467278E-09   9.102032285804462E-09   9.449831906965342E-09
   9.810921181235159E-09   1.018580790281026E-08   1.057501926778305E-08
   1.097910261540277E-08   1.139862619765272E-08   1.183417997822635E-08
   1.228637646202467E-08   1.275585155634040E-08   1.324326546493995E-08
   1.374930361629841E-08   1.427467762729297E-08   1.482012630370854E-08
   1.538641667896092E-08   1.597434509249842E-08   1.658473830939542E-08
   1.721845468271236E-08   1.787638536025493E-08   1.855945553742697E-08
   1.926862575793943E-08   2.000489326420012E-08   2.076929339928347E-08
   2.156290106244920E-08   2.238683222025346E-08   2.324224547537777E-08
   2.413034369537641E-08   2.505237570363251E-08   2.600963803489727E-08
   2.700347675787675E-08   2.803528936742925E-08   2.910652674902704E-08
   3.021869521824436E-08   3.137335863813476E-08   3.257214061747077E-08
   3.381672679293424E-08   3.510886719846052E-08   3.645037872506466E-08
   3.784314767460311E-08   3.928913241105588E-08   4.079036611305301E-08
   4.234895963150805E-08   4.396710445637168E-08   4.564707579666957E-08
   4.739123577814778E-08   4.920203676301529E-08   5.108202479644158E-08
   5.303384318464822E-08   5.506023620961546E-08   5.716405298561613E-08
   5.934825146299088E-08   6.161590258478050E-08   6.397019460204963E-08
   6.641443755395611E-08   6.895206791885006E-08   7.158665344293030E-08
   7.432189815322880E-08   7.716164756195762E-08   8.010989406951666E-08
   8.317078257373955E-08   8.634861629324648E-08   8.964786281306720E-08
   9.307316036101414E-08   9.662932432360478E-08   1.003213540106675E-07
   1.041544396781177E-07   1.081339698187431E-07   1.122655387312228E-07
   1.165549543779867E-07   1.210082465429245E-07   1.256316753003804E-07
   1.304317398072963E-07   1.354151874308237E-07   1.405890232241903E-07
   1.459605197640932E-07   1.515372273634022E-07   1.573269846734669E-07
   1.633379296908840E-07   1.695785111841298E-07   1.760575005560546E-07
   1.827840041588513E-07   1.897674760787257E-07   1.970177314081684E-07
   2.045449600243848E-07   2.123597408932552E-07   2.204730569185210E-07
   2.288963103575648E-07   2.376413388246977E-07   2.467204319046155E-07
   2.561463483994090E-07   2.659323342330872E-07   2.760921410385060E-07
   2.866400454526968E-07   2.975908691481072E-07   3.089599996267631E-07
   3.207634118073603E-07   3.330176904348431E-07   3.457400533437209E-07
   3.589483756082318E-07   3.726612146123490E-07   3.868978360747910E-07
   4.016782410659476E-07   4.170231940532880E-07   4.329542520155106E-07
   4.494937946652528E-07   4.666650558230664E-07   4.844921559853519E-07
   5.030001361334104E-07   5.222149928289818E-07   5.421637146457425E-07
   5.628743199882927E-07   5.843758963496608E-07   6.066986410637246E-07
   6.298739036079977E-07   6.539342295156292E-07   6.789134059592046E-07
   7.048465090673906E-07   7.317699530420688E-07   7.597215411434904E-07
   7.887405186140727E-07   8.188676276145094E-07   8.501451642488691E-07
   8.826170377571842E-07   9.163288319574201E-07   9.513278690236884E-07
   9.876632756864035E-07   1.025386051948589E-06   1.064549142412487E-06
   1.105207510314510E-06   1.147418214372642E-06   1.191240488551127E-06
   1.236735824853308E-06   1.283968059257435E-06   1.333003460913103E-06
   1.383910824723472E-06   1.436761567437519E-06   1.491629827389901E-06
   1.548592568020566E-06   1.607729685321518E-06   1.669124119355077E-06
   1.732861969999493E-06   1.799032617080629E-06   1.867728845053749E-06
   1.939046972408829E-06   2.013086985975452E-06   2.089952680311916E-06
   2.169751802371145E-06   2.252596201639724E-06   2.338601985957150E-06
   2.427889683228855E-06   2.520584409251956E-06   2.616816041887533E-06
   2.716719401812069E-06   2.820434440099363E-06   2.928106432886460E-06
   3.039886183389295E-06   3.155930231543526E-06   3.276401071556067E-06
   3.401467377661628E-06   3.531304238393772E-06   3.666093399686189E-06
   3.806023517132429E-06   3.951290417751674E-06   4.102097371608059E-06
   4.258655373653759E-06   4.421183436179234E-06   4.589908892258440E-06
   4.765067710605568E-06   4.946904822261544E-06   5.135674459551760E-06
   5.331640507771624E-06   5.535076870068023E-06   5.746267846009826E-06
   5.965508524350706E-06   6.193105190510988E-06   6.429375749320774E-06
   6.674650163590368E-06   6.929270909088582E-06   7.193593446534148E-06
   7.467986711229039E-06   7.752833620979632E-06   8.048531602977875E-06
   8.355493140338241E-06   8.674146339013102E-06   9.004935515828492E-06
   9.348321808417272E-06   9.704783807844103E-06   1.007481821475754E-05
   1.045894051991669E-05   1.085768570998904E-05   1.127160899953113E-05
   1.170128659010509E-05   1.214731645751449E-05   1.261031916817543E-05
   1.309093872567524E-05   1.358984344861262E-05   1.410772688083745E-05
   1.464530873526279E-05   1.520333587245224E-05   1.578258331522453E-05
   1.638385530057025E-05   1.700798637020598E-05   1.765584250115090E-05
   1.832832227774015E-05   1.902635810655278E-05   1.975091747576904E-05
   2.050300426053291E-05   2.128366007593378E-05   2.209396567929217E-05
   2.293504242347129E-05   2.380805376300746E-05   2.471420681489872E-05
   2.565475397595753E-05   2.663099459869434E-05   2.764427672775612E-05
   2.869599889901037E-05   2.978761200343828E-05   3.092062121805222E-05
   3.209658800613966E-05   3.331713218919064E-05   3.458393409295358E-05
   3.589873677011593E-05   3.726334830221419E-05   3.867964418341593E-05
   4.014956978893350E-05   4.167514293087586E-05   4.325845650444949E-05
   4.490168122749815E-05   4.660706847643949E-05   4.837695322177317E-05
   5.021375706638509E-05   5.211999138999834E-05   5.409826060318176E-05
   5.615126551443493E-05   5.828180681394748E-05   6.049278867774125E-05
   6.278722249597705E-05   6.516823072931147E-05   6.763905089728822E-05
   7.020303970282866E-05   7.286367729699442E-05   7.562457168828915E-05
   7.848946330083835E-05   8.146222968591836E-05   8.454689039135536E-05
   8.774761199343867E-05   9.106871329606493E-05   9.451467070192477E-05
   9.809012376061507E-05   1.017998808986642E-04   1.056489253365185E-04
   1.096424211976090E-04   1.137857198147142E-04   1.180843662388639E-04
   1.225441059561181E-04   1.271708918175972E-04   1.319708911881696E-04
   1.369504933192784E-04   1.421163169513795E-04   1.474752181514994E-04
   1.530342983914430E-04   1.588009128721373E-04   1.647826790996377E-04
   1.709874857182298E-04   1.774235016060730E-04   1.840991852387151E-04
   1.910232943257594E-04   1.982048957258557E-04   2.056533756450459E-04
   2.133784501233580E-04   2.213901758143798E-04   2.296989610622982E-04
   2.383155772807064E-04   2.472511706371752E-04   2.565172740472970E-04
   2.661258194815809E-04   2.760891505881483E-04   2.864200356338297E-04
   2.971316807656945E-04   3.082377435945971E-04   3.197523471016973E-04
   3.316900938682686E-04   3.440660806284366E-04   3.568959131436772E-04
   3.701957213970769E-04   3.839821751044362E-04   3.982724995382634E-04
   4.130844916596444E-04   4.284365365517482E-04   4.443476241474439E-04
   4.608373662421177E-04   4.779260137812159E-04   4.956344744104458E-04
   5.139843302747638E-04   5.329978560503644E-04   5.526980371918463E-04
   5.731085883744592E-04   5.942539721090253E-04   6.161594175044913E-04
   6.388509391503375E-04   6.623553560881458E-04   6.867003108383881E-04
   7.119142884452101E-04   7.380266354982326E-04   7.650675790866256E-04
   7.930682456364978E-04   8.220606795782057E-04   8.520778617855390E-04
   8.831537277236058E-04   9.153231852369698E-04   9.486221319037784E-04
   9.830874718756357E-04   1.018757132116452E-03   1.055670077946660E-03
   1.093866327791864E-03   1.133386967027335E-03   1.174274160801398E-03
   1.216571165712265E-03   1.260322340203502E-03   1.305573153533647E-03
   1.352370193165186E-03   1.400761170407177E-03   1.450794924134392E-03
   1.502521422393595E-03   1.555991761694923E-03   1.611258163772782E-03
   1.668373969586436E-03   1.727393630315743E-03   1.788372695091547E-03
   1.851367795184010E-03   1.916436624354749E-03   1.983637915060543E-03
   2.053031410177530E-03   2.124677829894824E-03   2.198638833405870E-03
   2.274976975004178E-03   2.353755654167423E-03   2.435039059190598E-03
   2.518892103904263E-03   2.605380356988614E-03   2.694569963367802E-03
   2.786527557141498E-03   2.881320165482651E-03   2.979015102901092E-03
   3.079679855242684E-03   3.183381952762826E-03   3.290188831581248E-03
   3.400167682792815E-03   3.513385288475616E-03   3.629907843803896E-03
   3.749800764439026E-03   3.873128478336783E-03   3.999954201074303E-03
   4.130339693764476E-03   4.264345002590417E-03   4.402028178957479E-03
   4.543444979225156E-03   4.688648542947531E-03   4.837689048517013E-03
   4.990613345074218E-03   5.147464559516027E-03   5.308281677404679E-03
   5.473099096554501E-03   5.641946152048371E-03   5.814846611415340E-03
   5.991818138683658E-03   6.172871726010244E-03   6.358011091580055E-03
   6.547232042465911E-03   6.740521801143564E-03   6.937858294368076E-03
   7.139209403136363E-03   7.344532172489905E-03   7.553771979949350E-03
   7.766861661423168E-03   7.983720593494507E-03   8.204253731066525E-03
   8.428350599438236E-03   8.655884239990651E-03   8.886710108789660E-03
   9.120664927558884E-03   9.357565486643678E-03   9.597207399780552E-03
   9.839363810703662E-03   1.008378405186659E-02   1.033019225583406E-02
   1.057828592020666E-02   1.082773442728649E-02   1.107817752007240E-02
   1.132922373659565E-02   1.158044880507145E-02   1.183139400285186E-02
   1.208156448272466E-02   1.233042757071251E-02   1.257741104019113E-02
   1.282190136786618E-02   1.306324197792940E-02   1.330073148155798E-02
   1.353362191982928E-02   1.376111701909832E-02   1.398237046893080E-02
   1.419648423380057E-02   1.440250691094969E-02   1.459943214807215E-02
   1.478619713581999E-02   1.496168119154193E-02   1.512470445215036E-02
   1.527402669556925E-02   1.540834631184211E-02   1.552629944667096E-02
   1.562645934190951E-02   1.570733589934008E-02   1.576737549591647E-02
   1.580496108054331E-02   1.581841258437545E-02   1.580598767854426E-02
   1.576588291513458E-02   1.569623528912797E-02   1.559512426087153E-02
   1.546057428040332E-02   1.529055785663439E-02   1.508299921592380E-02
   1.483577859594671E-02   1.454673722191039E-02   1.421368301306923E-02
   1.383439706808096E-02   1.340664097797582E-02   1.292816501531840E-02
   1.239671724746448E-02   1.181005362058075E-02   1.116594905922766E-02
   1.046220962372806E-02   9.696685764161510E-03   8.867286705559930E-03
   7.971995993623870E-03   7.008888223941895E-03   5.976146970177853E-03
   4.872083917875096E-03   3.695159200330587E-03   2.444002921289467E-03
   1.117437835914943E-03  -2.854968534939748E-04  -1.765520647343681E-03
  -3.323085923074388E-03  -4.958351233466807E-03  -6.671153850951366E-03
  -8.460981704468913E-03  -1.032694488198104E-02  -1.226774690022118E-02
  -1.428165597369808E-02  -1.636647654716565E-02  -1.851952138959601E-02
  -2.073758458295068E-02  -2.301691577539486E-02  -2.535319610574262E-02
  -2.774151624337410E-02  -3.017635702510253E-02  -3.265157320689193E-02
  -3.516038088313597E-02  -3.769534915861673E-02  -4.024839668725012E-02
  -4.281079371619173E-02  -4.537317029263092E-02  -4.792553130220407E-02
  -5.045727901098257E-02  -5.295724377576438E-02  -5.541372356816854E-02
  -5.781453292499969E-02  -6.014706188848581E-02  -6.239834543338288E-02
  -6.455514379148883E-02  -6.660403397581187E-02  -6.853151267457398E-02
  -7.032411052750526E-02  -7.196851761193984E-02  -7.345171975267116E-02
  -7.476114502641745E-02  -7.588481955865424E-02  -7.681153140760857E-02
  -7.753100099835376E-02  -7.803405621100083E-02  -7.831280984387395E-02
  -7.836083676945256E-02  -7.817334768330750E-02  -7.774735592143865E-02
  -7.708183339824036E-02  -7.617785130661835E-02  -7.503870083643417E-02
  -7.366998882249363E-02  -7.207970294595248E-02  -7.027824090272525E-02
  -6.827839784083724E-02  -6.609530637915134E-02  -6.374632367779456E-02
  -6.125086036234891E-02  -5.863014663667939E-02  -5.590693168034500E-02
  -5.310511344204417E-02  -5.024929723469613E-02  -4.736428313115612E-02
  -4.447448406787965E-02  -4.160327879583257E-02  -3.877230637335621E-02
  -3.600071176324133E-02  -3.330435525088693E-02  -3.069500180107337E-02
  -2.817951005779817E-02  -2.575904438387916E-02  -2.343142277954463E-02
  -2.120190766934071E-02  -1.907742786236583E-02  -1.706395292026347E-02
  -1.516643860322342E-02  -1.338878197341359E-02  -1.173378730372948E-02
  -1.020314387957660E-02  -8.797416696165905E-03  -7.516050941626995E-03
  -6.357391014849556E-03  -5.318714654871659E-03  -4.396282554082198E-03
  -3.585403589206837E-03  -2.880515531298311E-03  -2.275280787898459E-03
  -1.762696387490215E-03  -1.335217039034053E-03  -9.848896855418343E-04
  -7.034962471675621E-04  -4.827013846370187E-04  -3.142110407251264E-04
  -1.899344305185680E-04  -1.021299280977439E-04  -4.355146757903383E-05
  -7.578750319245375E-06   1.167072499709543E-05   1.925460751132924E-05
   1.935006205590339E-05   1.523646279177893E-05   9.450177405737059E-06
   4.114396413370386E-06   4.455451575046017E-07  -1.254820974393514E-06
  -1.382158111518095E-06  -7.354526302127962E-07  -1.425871237054066E-07
   0.000000000000000E+00   0.000000000000000E+00   0.000000000000000E+00
   0.000000000000000E+00   0.000000000000000E+00   0.000000000000000E+00
   0.000000000000000E+00   0.000000000000000E+00   0.000000000000000E+00
   0.000000000000000E+00   0.000000000000000E+00   0.000000000000000E+00
   0.000000000000000E+00   0.000000000000000E+00   0.000000000000000E+00
   0.000000000000000E+00   0.000000000000000E+00   0.000000000000000E+00
   0.000000000000000E+00   0.000000000000000E+00   0.000000000000000E+00
   0.000000000000000E+00   0.000000000000000E+00   0.000000000000000E+00
   0.000000000000000E+00   0.000000000000000E+00   0.000000000000000E+00
   0.000000000000000E+00   0.000000000000000E+00   0.000000000000000E+00
   0.000000000000000E+00   0.000000000000000E+00   0.000000000000000E+00
   0.000000000000000E+00   0.000000000000000E+00   0.000000000000000E+00
   0.000000000000000E+00   0.000000000000000E+00   0.000000000000000E+00
   0.000000000000000E+00   0.000000000000000E+00   0.000000000000000E+00
   0.000000000000000E+00   0.000000000000000E+00   0.000000000000000E+00
   0.000000000000000E+00   0.000000000000000E+00   0.000000000000000E+00
   0.000000000000000E+00   0.000000000000000E+00   0.000000000000000E+00
   0.000000000000000E+00   0.000000000000000E+00   0.000000000000000E+00
   0.000000000000000E+00   0.000000000000000E+00   0.000000000000000E+00
   0.000000000000000E+00   0.000000000000000E+00   0.000000000000000E+00
   0.000000000000000E+00   0.000000000000000E+00   0.000000000000000E+00
   0.000000000000000E+00   0.000000000000000E+00   0.000000000000000E+00
   0.000000000000000E+00   0.000000000000000E+00   0.000000000000000E+00
   0.000000000000000E+00   0.000000000000000E+00   0.000000000000000E+00
   0.000000000000000E+00   0.000000000000000E+00   0.000000000000000E+00
   0.000000000000000E+00   0.000000000000000E+00   0.000000000000000E+00
   0.000000000000000E+00   0.000000000000000E+00   0.000000000000000E+00
   0.000000000000000E+00   0.000000000000000E+00   0.000000000000000E+00
   0.000000000000000E+00   0.000000000000000E+00   0.000000000000000E+00
   0.000000000000000E+00   0.000000000000000E+00   0.000000000000000E+00
   0.000000000000000E+00   0.000000000000000E+00   0.000000000000000E+00
   0.000000000000000E+00   0.000000000000000E+00   0.000000000000000E+00
   0.000000000000000E+00   0.000000000000000E+00   0.000000000000000E+00
   0.000000000000000E+00   0.000000000000000E+00   0.000000000000000E+00
   0.000000000000000E+00   0.000000000000000E+00   0.000000000000000E+00
   0.000000000000000E+00   0.000000000000000E+00   0.000000000000000E+00
   0.000000000000000E+00   0.000000000000000E+00   0.000000000000000E+00
   0.000000000000000E+00   0.000000000000000E+00   0.000000000000000E+00
   0.000000000000000E+00   0.000000000000000E+00   0.000000000000000E+00
   0.000000000000000E+00   0.000000000000000E+00   0.000000000000000E+00
   0.000000000000000E+00   0.000000000000000E+00   0.000000000000000E+00
   0.000000000000000E+00   0.000000000000000E+00   0.000000000000000E+00
   0.000000000000000E+00   0.000000000000000E+00   0.000000000000000E+00
   0.000000000000000E+00   0.000000000000000E+00   0.000000000000000E+00
   0.000000000000000E+00   0.000000000000000E+00   0.000000000000000E+00
   0.000000000000000E+00   0.000000000000000E+00   0.000000000000000E+00
   0.000000000000000E+00   0.000000000000000E+00   0.000000000000000E+00
   0.000000000000000E+00   0.000000000000000E+00   0.000000000000000E+00
   0.000000000000000E+00   0.000000000000000E+00   0.000000000000000E+00
   0.000000000000000E+00   0.000000000000000E+00   0.000000000000000E+00
   0.000000000000000E+00   0.000000000000000E+00   0.000000000000000E+00
   0.000000000000000E+00   0.000000000000000E+00   0.000000000000000E+00
   0.000000000000000E+00   0.000000000000000E+00   0.000000000000000E+00
   0.000000000000000E+00   0.000000000000000E+00   0.000000000000000E+00
   0.000000000000000E+00   0.000000000000000E+00   0.000000000000000E+00
   0.000000000000000E+00   0.000000000000000E+00   0.000000000000000E+00
   0.000000000000000E+00   0.000000000000000E+00   0.000000000000000E+00
   0.000000000000000E+00   0.000000000000000E+00   0.000000000000000E+00
   0.000000000000000E+00   0.000000000000000E+00   0.000000000000000E+00
   0.000000000000000E+00   0.000000000000000E+00   0.000000000000000E+00
   0.000000000000000E+00   0.000000000000000E+00   0.000000000000000E+00
   0.000000000000000E+00   0.000000000000000E+00   0.000000000000000E+00
   0.000000000000000E+00   0.000000000000000E+00   0.000000000000000E+00
   0.000000000000000E+00   0.000000000000000E+00   0.000000000000000E+00
   0.000000000000000E+00   0.000000000000000E+00   0.000000000000000E+00
   0.000000000000000E+00   0.000000000000000E+00   0.000000000000000E+00
   0.000000000000000E+00   0.000000000000000E+00   0.000000000000000E+00
   0.000000000000000E+00   0.000000000000000E+00   0.000000000000000E+00
   0.000000000000000E+00   0.000000000000000E+00   0.000000000000000E+00
   0.000000000000000E+00   0.000000000000000E+00   0.000000000000000E+00
   0.000000000000000E+00   0.000000000000000E+00   0.000000000000000E+00
   0.000000000000000E+00   0.000000000000000E+00   0.000000000000000E+00
   0.000000000000000E+00   0.000000000000000E+00   0.000000000000000E+00
   0.000000000000000E+00   0.000000000000000E+00   0.000000000000000E+00
   0.000000000000000E+00   0.000000000000000E+00   0.000000000000000E+00
   0.000000000000000E+00   0.000000000000000E+00   0.000000000000000E+00
   0.000000000000000E+00   0.000000000000000E+00   0.000000000000000E+00
   0.000000000000000E+00   0.000000000000000E+00   0.000000000000000E+00
   0.000000000000000E+00   0.000000000000000E+00   0.000000000000000E+00
   0.000000000000000E+00   0.000000000000000E+00   0.000000000000000E+00
   0.000000000000000E+00   0.000000000000000E+00   0.000000000000000E+00
   0.000000000000000E+00   0.000000000000000E+00   0.000000000000000E+00
   0.000000000000000E+00   0.000000000000000E+00   0.000000000000000E+00
   0.000000000000000E+00   0.000000000000000E+00   0.000000000000000E+00
   0.000000000000000E+00   0.000000000000000E+00   0.000000000000000E+00
   0.000000000000000E+00   0.000000000000000E+00   0.000000000000000E+00
   0.000000000000000E+00   0.000000000000000E+00   0.000000000000000E+00
   0.000000000000000E+00   0.000000000000000E+00   0.000000000000000E+00
   0.000000000000000E+00   0.000000000000000E+00   0.000000000000000E+00
   0.000000000000000E+00   0.000000000000000E+00   0.000000000000000E+00
   0.000000000000000E+00   0.000000000000000E+00   0.000000000000000E+00
   0.000000000000000E+00   0.000000000000000E+00   0.000000000000000E+00
   0.000000000000000E+00   0.000000000000000E+00   0.000000000000000E+00
   0.000000000000000E+00   0.000000000000000E+00   0.000000000000000E+00
   0.000000000000000E+00   0.000000000000000E+00   0.000000000000000E+00
   0.000000000000000E+00   0.000000000000000E+00   0.000000000000000E+00
   0.000000000000000E+00   0.000000000000000E+00   0.000000000000000E+00
   0.000000000000000E+00   0.000000000000000E+00   0.000000000000000E+00
   0.000000000000000E+00   0.000000000000000E+00   0.000000000000000E+00
   0.000000000000000E+00   0.000000000000000E+00   0.000000000000000E+00
   0.000000000000000E+00   0.000000000000000E+00   0.000000000000000E+00
   0.000000000000000E+00   0.000000000000000E+00   0.000000000000000E+00
   0.000000000000000E+00   0.000000000000000E+00   0.000000000000000E+00
   0.000000000000000E+00   0.000000000000000E+00   0.000000000000000E+00
   0.000000000000000E+00   0.000000000000000E+00   0.000000000000000E+00
   0.000000000000000E+00   0.000000000000000E+00   0.000000000000000E+00
   0.000000000000000E+00   0.000000000000000E+00   0.000000000000000E+00
   0.000000000000000E+00   0.000000000000000E+00   0.000000000000000E+00
   0.000000000000000E+00   0.000000000000000E+00   0.000000000000000E+00
   0.000000000000000E+00   0.000000000000000E+00   0.000000000000000E+00
   0.000000000000000E+00   0.000000000000000E+00   0.000000000000000E+00
   0.000000000000000E+00   0.000000000000000E+00   0.000000000000000E+00
   0.000000000000000E+00   0.000000000000000E+00   0.000000000000000E+00
      </PP_QIJL.2.3.1>
      <PP_QIJL.2.4.1 first_index="2" second_index="4" composite_index="8" angular_momentum="1" size="1095">
   2.139228935117936E-12   2.220973135965921E-12   2.305840945399129E-12
   2.393951722702352E-12   2.485429388114631E-12   2.580402597112246E-12
   2.679004921351431E-12   2.781375036525254E-12   2.887656917398861E-12
   2.998000040297439E-12   3.112559593331547E-12   3.231496694655647E-12
   3.354978619066679E-12   3.483179033261400E-12   3.616278240083405E-12
   3.754463432103208E-12   3.897928954888181E-12   4.046876580332534E-12
   4.201515790431713E-12   4.362064071900448E-12   4.528747222048596E-12
   4.701799666345207E-12   4.881464788117238E-12   5.067995270846734E-12
   5.261653453547837E-12   5.462711699723343E-12   5.671452780419921E-12
   5.888170271920505E-12   6.113168968633275E-12   6.346765311758017E-12
   6.589287834332434E-12   6.841077623284712E-12   7.102488799141865E-12
   7.373889014068700E-12   7.655659968937796E-12   7.948197950157618E-12
   8.251914387013911E-12   8.567236430308155E-12   8.894607553106814E-12
   9.234488174446487E-12   9.587356306871724E-12   9.953708228716727E-12
   1.033405918207607E-11   1.072894409744616E-11   1.113891834605669E-11
   1.156455852094985E-11   1.200646324790627E-11   1.246525402735776E-11
   1.294157610847111E-11   1.343609939663236E-11   1.394951939560746E-11
   1.448255818570477E-11   1.503596543931495E-11   1.561051947525631E-11
   1.620702835340890E-11   1.682633101117604E-11   1.746929844337258E-11
   1.813683492719861E-11   1.882987929402149E-11   1.954940624975525E-11
   2.029642774569360E-11   2.107199440172524E-11   2.187719698393264E-11
   2.271316793865234E-11   2.358108298515477E-11   2.448216276918246E-11
   2.541767457967356E-11   2.638893413108387E-11   2.739730741381451E-11
   2.844421261534815E-11   2.953112211479409E-11   3.065956455364935E-11
   3.183112698568656E-11   3.304745710899258E-11   3.431026558329774E-11
   3.562132843585307E-11   3.698248955924092E-11   3.839566330463090E-11
   3.986283717412818E-11   4.138607461600128E-11   4.296751792671927E-11
   4.460939126388144E-11   4.631400377427526E-11   4.808375284146263E-11
   4.992112745746203E-11   5.182871172326676E-11   5.380918848312487E-11
   5.586534309768974E-11   5.800006736134887E-11   6.021636356924024E-11
   6.251734873967441E-11   6.490625899790295E-11   6.738645412739677E-11
   6.996142229503554E-11   7.263478495685418E-11   7.541030195124360E-11
   7.829187678677185E-11   8.128356213205941E-11   8.438956551543055E-11
   8.761425524235751E-11   9.096216653901611E-11   9.443800793059741E-11
   9.804666786334233E-11   1.017932215796129E-10   1.056829382556709E-10
   1.097212884121969E-10   1.139139516079781E-10   1.182668244275809E-10
   1.227860287742415E-10   1.274779204796402E-10   1.323490982426629E-10
   1.374064129097258E-10   1.426569771097112E-10   1.481081752570659E-10
   1.537676739371299E-10   1.596434326882977E-10   1.657437151961803E-10
   1.720771009155082E-10   1.786524971361172E-10   1.854791515099920E-10
   1.925666650569749E-10   1.999250056674409E-10   2.075645221209197E-10
   2.154959586403829E-10   2.237304700026661E-10   2.322796372262671E-10
   2.411554838585953E-10   2.503704928855653E-10   2.599376242873215E-10
   2.698703332647811E-10   2.801825891626218E-10   2.908888951153350E-10
   3.020043084439655E-10   3.135444618322223E-10   3.255255853117457E-10
   3.379645290874348E-10   3.508787872349509E-10   3.642865223037103E-10
   3.782065908599671E-10   3.926585700059127E-10   4.076627849120706E-10
   4.232403374017215E-10   4.394131356275409E-10   4.562039248821934E-10
   4.736363195862018E-10   4.917348364980764E-10   5.105249291934084E-10
   5.300330238614129E-10   5.502865564692511E-10   5.713140113464113E-10
   5.931449612433785E-10   6.158101089209516E-10   6.393413303286784E-10
   6.637717194331185E-10   6.891356347589958E-10   7.154687477086473E-10
   7.428080927277564E-10   7.711921193878867E-10   8.006607464590536E-10
   8.312554180483895E-10   8.630191618838058E-10   8.959966498246494E-10
   9.302342606844087E-10   9.657801454538187E-10   1.002684295016092E-09
   1.040998610449435E-09   1.080776976015807E-09   1.122075334938427E-09
   1.164951768074677E-09   1.209466575594993E-09   1.255682361782539E-09
   1.303664123073021E-09   1.353479339458277E-09   1.405198069382291E-09
   1.458893048263009E-09   1.514639790778423E-09   1.572516697060902E-09
   1.632605162948880E-09   1.694989694451067E-09   1.759758026584082E-09
   1.827001246750509E-09   1.896813922831018E-09   1.969294236170436E-09
   2.044544119644909E-09   2.122669401004206E-09   2.203779951690617E-09
   2.287989841343892E-09   2.375417498209150E-09   2.466185875673512E-09
   2.560422625165511E-09   2.658260275660239E-09   2.759836420042863E-09
   2.865293908592166E-09   2.974781049856401E-09   3.088451819203740E-09
   3.206466075340383E-09   3.328989785101016E-09   3.456195256827229E-09
   3.588261382662279E-09   3.725373890102702E-09   3.867725603160193E-09
   4.015516713501327E-09   4.168955061945672E-09   4.328256430718480E-09
   4.493644846868545E-09   4.665352897277560E-09   4.843622055704228E-09
   5.028703022322229E-09   5.220856076229714E-09   5.420351441425708E-09
   5.627469666767473E-09   5.842502020443545E-09   6.065750899516062E-09
   6.297530255108602E-09   6.538166033836843E-09   6.787996636102241E-09
   7.047373391893397E-09   7.316661054762969E-09   7.596238314675033E-09
   7.886498330443256E-09   8.187849282507919E-09   8.500714946829250E-09
   8.825535290702534E-09   9.162767091333100E-09   9.512884578039979E-09
   9.876380098990273E-09   1.025376481340203E-08   1.064556941018697E-08
   1.105234485404367E-08   1.147466316004922E-08   1.191311819783708E-08
   1.236832652649212E-08   1.284092826133415E-08   1.333158797380902E-08
   1.384099562575093E-08   1.436986753932764E-08   1.491894740403271E-08
   1.548900732213733E-08   1.608084889407157E-08   1.669530434525927E-08
   1.733323769598815E-08   1.799554597596038E-08   1.868316048522674E-08
   1.939704810327727E-08   2.013821264812581E-08   2.090769628729684E-08
   2.170658100269667E-08   2.253599011142496E-08   2.339708984466266E-08
   2.429109098685301E-08   2.521925057747648E-08   2.618287367780969E-08
   2.718331520514756E-08   2.822198183706444E-08   2.930033398838681E-08
   3.041988786365229E-08   3.158221758793658E-08   3.278895741903783E-08
   3.404180404412411E-08   3.534251896406668E-08   3.669293096880431E-08
   3.809493870721322E-08   3.955051335508737E-08   4.106170138497334E-08
   4.263062744174513E-08   4.425949732795272E-08   4.595060110313322E-08
   4.770631630143048E-08   4.952911127203740E-08   5.142154864714548E-08
   5.338628894226419E-08   5.542609429396079E-08   5.754383234025897E-08
   5.974248024913950E-08   6.202512890078911E-08   6.439498722946066E-08
   6.685538673103183E-08   6.940978614257821E-08   7.206177630052130E-08
   7.481508518415881E-08   7.767358315164299E-08   8.064128837574588E-08
   8.372237248702445E-08   8.692116643229218E-08   9.024216655660302E-08
   9.369004091726454E-08   9.726963583872485E-08   1.009859827175089E-07
   1.048443050867340E-07   1.088500259500947E-07   1.130087753955789E-07
   1.173263984995785E-07   1.218089635324479E-07   1.264627704769984E-07
   1.312943598718435E-07   1.363105219919805E-07   1.415183063793472E-07
   1.469250317369886E-07   1.525382962001579E-07   1.583659879992507E-07
   1.644162965290435E-07   1.706977238401057E-07   1.772190965679739E-07
   1.839895783172943E-07   1.910186825176504E-07   1.983162857696545E-07
   2.058926416993744E-07   2.137583953408457E-07   2.219245980664710E-07
   2.304027230863876E-07   2.392046815381446E-07   2.483428391894605E-07
   2.578300337771967E-07   2.676795930064994E-07   2.779053532358272E-07
   2.885216788731787E-07   2.995434825110049E-07   3.109862458278513E-07
   3.228660412855830E-07   3.351995546527646E-07   3.480041083852141E-07
   3.612976858963372E-07   3.750989567514421E-07   3.894273028204877E-07
   4.043028454258319E-07   4.197464735230718E-07   4.357798729536429E-07
   4.524255568102112E-07   4.697068969566911E-07   4.876481567470312E-07
   5.062745249881349E-07   5.256121511934856E-07   5.456881821772991E-07
   5.665308000394221E-07   5.881692615932274E-07   6.106339392924162E-07
   6.339563637120251E-07   6.581692676434051E-07   6.833066318635687E-07
   7.094037326429644E-07   7.364971910566990E-07   7.646250241678836E-07
   7.938266981531871E-07   8.241431834449001E-07   8.556170119650158E-07
   8.882923365301450E-07   9.222149925100416E-07   9.574325618236646E-07
   9.939944393618292E-07   1.031951901927500E-06   1.071358179789086E-06
   1.112268530943611E-06   1.154740318194992E-06   1.198833089149381E-06
   1.244608659241305E-06   1.292131197900988E-06   1.341467317984048E-06
   1.392686168584298E-06   1.445859531357529E-06   1.501061920487594E-06
   1.558370686432416E-06   1.617866123590873E-06   1.679631582037978E-06
   1.743753583480622E-06   1.810321941592761E-06   1.879429886893087E-06
   1.951174196335576E-06   2.025655327789361E-06   2.102977559590569E-06
   2.183249135356037E-06   2.266582414254286E-06   2.353094026938411E-06
   2.442905037352845E-06   2.536141110629657E-06   2.632932687306830E-06
   2.733415164096569E-06   2.837729081454181E-06   2.946020318196570E-06
   3.058440293432047E-06   3.175146176074820E-06   3.296301102224402E-06
   3.422074400700397E-06   3.552641827036786E-06   3.688185806246982E-06
   3.828895684684961E-06   3.974967991336711E-06   4.126606708893060E-06
   4.284023554960342E-06   4.447438273787155E-06   4.617078938888840E-06
   4.793182266974288E-06   4.975993943588857E-06   5.165768960903139E-06
   5.362771968089822E-06   5.567277634754949E-06   5.779571027897030E-06
   5.999948002886208E-06   6.228715608979965E-06   6.466192509899526E-06
   6.712709420017504E-06   6.968609556724667E-06   7.234249109557069E-06
   7.509997726700370E-06   7.796239019488654E-06   8.093371085554739E-06
   8.401807051303953E-06   8.721975634402733E-06   9.054321727005329E-06
   9.399307000459930E-06   9.757410532266417E-06   1.012912945607628E-05
   1.051497963556131E-05   1.091549636299855E-05   1.133123508345095E-05
   1.176277214544843E-05   1.221070557911329E-05   1.267565590269071E-05
   1.315826695849268E-05   1.365920677928445E-05   1.417916848618161E-05
   1.471887121916124E-05   1.527906110132360E-05   1.586051223807930E-05
   1.646402775247086E-05   1.709044085788537E-05   1.774061596944019E-05
   1.841544985537569E-05   1.911587282982788E-05   1.984284998839102E-05
   2.059738248792992E-05   2.138050887214357E-05   2.219330644442629E-05
   2.303689268961827E-05   2.391242674629169E-05   2.482111093125223E-05
   2.576419231800364E-05   2.674296437095719E-05   2.775876863722467E-05
   2.881299649789157E-05   2.990709098070777E-05   3.104254863619726E-05
   3.222092147923431E-05   3.344381899819370E-05   3.471291023383832E-05
   3.602992593015980E-05   3.739666075944185E-05   3.881497562388688E-05
   4.028680003618569E-05   4.181413458147553E-05   4.339905346319822E-05
   4.504370713540498E-05   4.675032502413820E-05   4.852121834055604E-05
   5.035878298853047E-05   5.226550256951595E-05   5.424395148750944E-05
   5.629679815701916E-05   5.842680831697165E-05   6.063684845356346E-05
   6.292988933510104E-05   6.530900966192357E-05   6.777739983454435E-05
   7.033836584318808E-05   7.299533328194475E-05   7.575185149078387E-05
   7.861159782872048E-05   8.157838208142318E-05   8.465615100660900E-05
   8.784899302055217E-05   9.116114302906448E-05   9.459698740629659E-05
   9.816106912470529E-05   1.018580930395173E-04   1.056929313309986E-04
   1.096706291077987E-04   1.137964101746070E-04   1.180756829672818E-04
   1.225140466585665E-04   1.271172974374029E-04   1.318914349647706E-04
   1.368426690088492E-04   1.419774262621811E-04   1.473023573433475E-04
   1.528243439855108E-04   1.585505064139672E-04   1.644882109146287E-04
   1.706450775951415E-04   1.770289883400077E-04   1.836480949608513E-04
   1.905108275425563E-04   1.976259029856869E-04   2.050023337451611E-04
   2.126494367646962E-04   2.205768426060673E-04   2.287945047716720E-04
   2.373127092182913E-04   2.461420840593143E-04   2.552936094519802E-04
   2.647786276654399E-04   2.746088533246098E-04   2.847963838238971E-04
   2.953537099039234E-04   3.062937263832967E-04   3.176297430363970E-04
   3.293754956068940E-04   3.415451569454215E-04   3.541533482584120E-04
   3.672151504535887E-04   3.807461155659833E-04   3.947622782466005E-04
   4.092801672939710E-04   4.243168172068273E-04   4.398897797339889E-04
   4.560171353952491E-04   4.727175049445752E-04   4.900100607443236E-04
   5.079145380163627E-04   5.264512459329767E-04   5.456410785072779E-04
   5.655055252394022E-04   5.860666814711816E-04   6.073472583980990E-04
   6.293705926832538E-04   6.521606556137143E-04   6.757420617349850E-04
   7.001400768944337E-04   7.253806256193037E-04   7.514902977494146E-04
   7.784963542388404E-04   8.064267320346299E-04   8.353100479341243E-04
   8.651756013155109E-04   8.960533756289103E-04   9.279740385276715E-04
   9.609689405113156E-04   9.950701119431104E-04   1.030310258296149E-03
   1.066722753472358E-03   1.104341631028906E-03   1.143201573135933E-03
   1.183337897078573E-03   1.224786539104711E-03   1.267584035407759E-03
   1.311767500021166E-03   1.357374599388107E-03   1.404443523355957E-03
   1.453012952330810E-03   1.503122020312148E-03   1.554810273512279E-03
   1.608117624248781E-03   1.663084299781329E-03   1.719750785746841E-03
   1.778157763828619E-03   1.838346043276599E-03   1.900356485876347E-03
   1.964229923944611E-03   2.030007070908788E-03   2.097728424006557E-03
   2.167434158620656E-03   2.239164013741655E-03   2.312957168029354E-03
   2.388852105920831E-03   2.466886473210052E-03   2.547096921501190E-03
   2.629518940914234E-03   2.714186680398661E-03   2.801132754987755E-03
   2.890388039303407E-03   2.981981446599194E-03   3.075939692607619E-03
   3.172287043436758E-03   3.271045046741736E-03   3.372232245377864E-03
   3.475863872725566E-03   3.581951528861870E-03   3.690502836740571E-03
   3.801521077532733E-03   3.915004804271751E-03   4.030947432943404E-03
   4.149336810160885E-03   4.270154756569279E-03   4.393376585133020E-03
   4.518970593474455E-03   4.646897529452906E-03   4.777110029201108E-03
   4.909552026871698E-03   5.044158135390464E-03   5.180852997566389E-03
   5.319550606972727E-03   5.460153598088303E-03   5.602552505276024E-03
   5.746624990277151E-03   5.892235038015667E-03   6.039232120640017E-03
   6.187450329878868E-03   6.336707477956670E-03   6.486804167504193E-03
   6.637522831110240E-03   6.788626741396419E-03   6.939858992756821E-03
   7.090941456192421E-03   7.241573708986766E-03   7.391431941316741E-03
   7.540167842272854E-03   7.687407468178108E-03   7.832750096546031E-03
   7.975767069508437E-03   8.116000631073383E-03   8.252962763146365E-03
   8.386134025863513E-03   8.514962408447041E-03   8.638862197501408E-03
   8.757212870424679E-03   8.869358022414947E-03   8.974604336406258E-03
   9.072220606173582E-03   9.161436823800866E-03   9.241443343710486E-03
   9.311390136504501E-03   9.370386146966697E-03   9.417498771716814E-03
   9.451753473190877E-03   9.472133547840322E-03   9.477580067691522E-03
   9.466992015680253E-03   9.439226636463981E-03   9.393100025709551E-03
   9.327387982143298E-03   9.240827147921866E-03   9.132116464120115E-03
   8.999918969320292E-03   8.842863970404140E-03   8.659549615675716E-03
   8.448545901351225E-03   8.208398143217053E-03   7.937630945846704E-03
   7.634752702147606E-03   7.298260656143840E-03   6.926646561747930E-03
   6.518402969792119E-03   6.072030174727798E-03   5.586043851109251E-03
   5.058983408202768E-03   4.489421088739684E-03   3.875971834910693E-03
   3.217303941102831E-03   2.512150508550966E-03   1.759321711943751E-03
   9.577178820097650E-04   1.063434011583666E-04  -7.956785987251786E-04
  -1.749090756288625E-03  -2.754485248686550E-03  -3.812286849105478E-03
  -4.922735328102049E-03  -6.085867267013114E-03  -7.301497367031830E-03
  -8.569199354234379E-03  -9.888286598909580E-03  -1.125779258693494E-02
  -1.267645140164573E-02  -1.414267839656335E-02  -1.565455126237274E-02
  -1.720979171554508E-02  -1.880574806075673E-02  -2.043937890455714E-02
  -2.210723832326150E-02  -2.380546281342996E-02  -2.552976037814134E-02
  -2.727540212603296E-02  -2.903721678222387E-02  -3.080958853007781E-02
  -3.258645861954426E-02  -3.436133119073342E-02  -3.612728376945579E-02
  -3.787698289371736E-02  -3.960270532546985E-02  -4.129636528907767E-02
  -4.294954815575139E-02  -4.455355096022793E-02  -4.609943009093979E-02
  -4.757805643637486E-02  -4.898017819691138E-02  -5.029649148179298E-02
  -5.151771870378581E-02  -5.263469465834387E-02  -5.363846002883461E-02
  -5.452036189386475E-02  -5.527216062666623E-02  -5.588614236989561E-02
  -5.635523604267648E-02  -5.667313359145540E-02  -5.683441193417429E-02
  -5.683465477115685E-02  -5.667057214967542E-02  -5.634011537722260E-02
  -5.584258458704551E-02  -5.517872597582067E-02  -5.435081546614409E-02
  -5.336272530595897E-02  -5.221996991482259E-02  -5.092972713621662E-02
  -4.950083097062861E-02  -4.794373186188069E-02  -4.627042070642685E-02
  -4.449431297018523E-02  -4.263008964863042E-02  -4.069349231208792E-02
  -3.870107015759813E-02  -3.666987785824471E-02  -3.461712407503165E-02
  -3.255977178655308E-02  -3.051409310456116E-02  -2.849518297983879E-02
  -2.651643815588092E-02  -2.458900988189541E-02  -2.272124122490552E-02
  -2.091810228399475E-02  -1.918063915436130E-02  -1.750755111445262E-02
  -1.590253363249783E-02  -1.437040009857116E-02  -1.291530723215883E-02
  -1.154072010269602E-02  -1.024938382324711E-02  -9.043302624376831E-03
  -7.923726961987260E-03  -6.891149243063777E-03  -5.945308666119059E-03
  -5.085205567690931E-03  -4.309125542259290E-03  -3.614673460030582E-03
  -2.998817345264720E-03  -2.457941897814453E-03  -1.987911242927271E-03
  -1.584140280725038E-03  -1.241673779046909E-03  -9.552721119142904E-04
  -7.195016142228644E-04  -5.288276308554746E-04  -3.777130782247201E-04
  -2.607182275025377E-04  -1.725912047430417E-04  -1.083579471791163E-04
  -6.340267141793227E-05  -3.353788206266611E-05  -1.506053676152141E-05
  -4.791353442522295E-06  -9.422488037036381E-08   1.184368606726299E-06
   8.484753857666838E-07   1.160435872829633E-07  -3.750650888470139E-07
  -4.522553203305940E-07  -2.563855998304054E-07  -5.205517274523008E-08
   0.000000000000000E+00   0.000000000000000E+00   0.000000000000000E+00
   0.000000000000000E+00   0.000000000000000E+00   0.000000000000000E+00
   0.000000000000000E+00   0.000000000000000E+00   0.000000000000000E+00
   0.000000000000000E+00   0.000000000000000E+00   0.000000000000000E+00
   0.000000000000000E+00   0.000000000000000E+00   0.000000000000000E+00
   0.000000000000000E+00   0.000000000000000E+00   0.000000000000000E+00
   0.000000000000000E+00   0.000000000000000E+00   0.000000000000000E+00
   0.000000000000000E+00   0.000000000000000E+00   0.000000000000000E+00
   0.000000000000000E+00   0.000000000000000E+00   0.000000000000000E+00
   0.000000000000000E+00   0.000000000000000E+00   0.000000000000000E+00
   0.000000000000000E+00   0.000000000000000E+00   0.000000000000000E+00
   0.000000000000000E+00   0.000000000000000E+00   0.000000000000000E+00
   0.000000000000000E+00   0.000000000000000E+00   0.000000000000000E+00
   0.000000000000000E+00   0.000000000000000E+00   0.000000000000000E+00
   0.000000000000000E+00   0.000000000000000E+00   0.000000000000000E+00
   0.000000000000000E+00   0.000000000000000E+00   0.000000000000000E+00
   0.000000000000000E+00   0.000000000000000E+00   0.000000000000000E+00
   0.000000000000000E+00   0.000000000000000E+00   0.000000000000000E+00
   0.000000000000000E+00   0.000000000000000E+00   0.000000000000000E+00
   0.000000000000000E+00   0.000000000000000E+00   0.000000000000000E+00
   0.000000000000000E+00   0.000000000000000E+00   0.000000000000000E+00
   0.000000000000000E+00   0.000000000000000E+00   0.000000000000000E+00
   0.000000000000000E+00   0.000000000000000E+00   0.000000000000000E+00
   0.000000000000000E+00   0.000000000000000E+00   0.000000000000000E+00
   0.000000000000000E+00   0.000000000000000E+00   0.000000000000000E+00
   0.000000000000000E+00   0.000000000000000E+00   0.000000000000000E+00
   0.000000000000000E+00   0.000000000000000E+00   0.000000000000000E+00
   0.000000000000000E+00   0.000000000000000E+00   0.000000000000000E+00
   0.000000000000000E+00   0.000000000000000E+00   0.000000000000000E+00
   0.000000000000000E+00   0.000000000000000E+00   0.000000000000000E+00
   0.000000000000000E+00   0.000000000000000E+00   0.000000000000000E+00
   0.000000000000000E+00   0.000000000000000E+00   0.000000000000000E+00
   0.000000000000000E+00   0.000000000000000E+00   0.000000000000000E+00
   0.000000000000000E+00   0.000000000000000E+00   0.000000000000000E+00
   0.000000000000000E+00   0.000000000000000E+00   0.000000000000000E+00
   0.000000000000000E+00   0.000000000000000E+00   0.000000000000000E+00
   0.000000000000000E+00   0.000000000000000E+00   0.000000000000000E+00
   0.000000000000000E+00   0.000000000000000E+00   0.000000000000000E+00
   0.000000000000000E+00   0.000000000000000E+00   0.000000000000000E+00
   0.000000000000000E+00   0.000000000000000E+00   0.000000000000000E+00
   0.000000000000000E+00   0.000000000000000E+00   0.000000000000000E+00
   0.000000000000000E+00   0.000000000000000E+00   0.000000000000000E+00
   0.000000000000000E+00   0.000000000000000E+00   0.000000000000000E+00
   0.000000000000000E+00   0.000000000000000E+00   0.000000000000000E+00
   0.000000000000000E+00   0.000000000000000E+00   0.000000000000000E+00
   0.000000000000000E+00   0.000000000000000E+00   0.000000000000000E+00
   0.000000000000000E+00   0.000000000000000E+00   0.000000000000000E+00
   0.000000000000000E+00   0.000000000000000E+00   0.000000000000000E+00
   0.000000000000000E+00   0.000000000000000E+00   0.000000000000000E+00
   0.000000000000000E+00   0.000000000000000E+00   0.000000000000000E+00
   0.000000000000000E+00   0.000000000000000E+00   0.000000000000000E+00
   0.000000000000000E+00   0.000000000000000E+00   0.000000000000000E+00
   0.000000000000000E+00   0.000000000000000E+00   0.000000000000000E+00
   0.000000000000000E+00   0.000000000000000E+00   0.000000000000000E+00
   0.000000000000000E+00   0.000000000000000E+00   0.000000000000000E+00
   0.000000000000000E+00   0.000000000000000E+00   0.000000000000000E+00
   0.000000000000000E+00   0.000000000000000E+00   0.000000000000000E+00
   0.000000000000000E+00   0.000000000000000E+00   0.000000000000000E+00
   0.000000000000000E+00   0.000000000000000E+00   0.000000000000000E+00
   0.000000000000000E+00   0.000000000000000E+00   0.000000000000000E+00
   0.000000000000000E+00   0.000000000000000E+00   0.000000000000000E+00
   0.000000000000000E+00   0.000000000000000E+00   0.000000000000000E+00
   0.000000000000000E+00   0.000000000000000E+00   0.000000000000000E+00
   0.000000000000000E+00   0.000000000000000E+00   0.000000000000000E+00
   0.000000000000000E+00   0.000000000000000E+00   0.000000000000000E+00
   0.000000000000000E+00   0.000000000000000E+00   0.000000000000000E+00
   0.000000000000000E+00   0.000000000000000E+00   0.000000000000000E+00
   0.000000000000000E+00   0.000000000000000E+00   0.000000000000000E+00
   0.000000000000000E+00   0.000000000000000E+00   0.000000000000000E+00
   0.000000000000000E+00   0.000000000000000E+00   0.000000000000000E+00
   0.000000000000000E+00   0.000000000000000E+00   0.000000000000000E+00
   0.000000000000000E+00   0.000000000000000E+00   0.000000000000000E+00
   0.000000000000000E+00   0.000000000000000E+00   0.000000000000000E+00
   0.000000000000000E+00   0.000000000000000E+00   0.000000000000000E+00
   0.000000000000000E+00   0.000000000000000E+00   0.000000000000000E+00
   0.000000000000000E+00   0.000000000000000E+00   0.000000000000000E+00
   0.000000000000000E+00   0.000000000000000E+00   0.000000000000000E+00
   0.000000000000000E+00   0.000000000000000E+00   0.000000000000000E+00
   0.000000000000000E+00   0.000000000000000E+00   0.000000000000000E+00
   0.000000000000000E+00   0.000000000000000E+00   0.000000000000000E+00
   0.000000000000000E+00   0.000000000000000E+00   0.000000000000000E+00
   0.000000000000000E+00   0.000000000000000E+00   0.000000000000000E+00
   0.000000000000000E+00   0.000000000000000E+00   0.000000000000000E+00
   0.000000000000000E+00   0.000000000000000E+00   0.000000000000000E+00
   0.000000000000000E+00   0.000000000000000E+00   0.000000000000000E+00
   0.000000000000000E+00   0.000000000000000E+00   0.000000000000000E+00
   0.000000000000000E+00   0.000000000000000E+00   0.000000000000000E+00
   0.000000000000000E+00   0.000000000000000E+00   0.000000000000000E+00
   0.000000000000000E+00   0.000000000000000E+00   0.000000000000000E+00
   0.000000000000000E+00   0.000000000000000E+00   0.000000000000000E+00
   0.000000000000000E+00   0.000000000000000E+00   0.000000000000000E+00
   0.000000000000000E+00   0.000000000000000E+00   0.000000000000000E+00
   0.000000000000000E+00   0.000000000000000E+00   0.000000000000000E+00
   0.000000000000000E+00   0.000000000000000E+00   0.000000000000000E+00
   0.000000000000000E+00   0.000000000000000E+00   0.000000000000000E+00
   0.000000000000000E+00   0.000000000000000E+00   0.000000000000000E+00
   0.000000000000000E+00   0.000000000000000E+00   0.000000000000000E+00
   0.000000000000000E+00   0.000000000000000E+00   0.000000000000000E+00
   0.000000000000000E+00   0.000000000000000E+00   0.000000000000000E+00
   0.000000000000000E+00   0.000000000000000E+00   0.000000000000000E+00
   0.000000000000000E+00   0.000000000000000E+00   0.000000000000000E+00
   0.000000000000000E+00   0.000000000000000E+00   0.000000000000000E+00
   0.000000000000000E+00   0.000000000000000E+00   0.000000000000000E+00
   0.000000000000000E+00   0.000000000000000E+00   0.000000000000000E+00
   0.000000000000000E+00   0.000000000000000E+00   0.000000000000000E+00
   0.000000000000000E+00   0.000000000000000E+00   0.000000000000000E+00
   0.000000000000000E+00   0.000000000000000E+00   0.000000000000000E+00
   0.000000000000000E+00   0.000000000000000E+00   0.000000000000000E+00
   0.000000000000000E+00   0.000000000000000E+00   0.000000000000000E+00
   0.000000000000000E+00   0.000000000000000E+00   0.000000000000000E+00
   0.000000000000000E+00   0.000000000000000E+00   0.000000000000000E+00
   0.000000000000000E+00   0.000000000000000E+00   0.000000000000000E+00
   0.000000000000000E+00   0.000000000000000E+00   0.000000000000000E+00
      </PP_QIJL.2.4.1>
      <PP_QIJL.3.3.0 first_index="3" second_index="3" composite_index="6" angular_momentum="0" size="1095">
   2.670954147017854E-08   2.738569673358794E-08   2.807896894908322E-08
   2.878979143437450E-08   2.951860847666235E-08   3.026587561033153E-08
   3.103205990167492E-08   3.181764024082533E-08   3.262310764107709E-08
   3.344896554578592E-08   3.429573014303686E-08   3.516393068827898E-08
   3.605410983512725E-08   3.696682397453860E-08   3.790264358257478E-08
   3.886215357696800E-08   3.984595368271394E-08   4.085465880691932E-08
   4.188889942313878E-08   4.294932196544186E-08   4.403658923245476E-08
   4.515138080163149E-08   4.629439345401185E-08   4.746634160973229E-08
   4.866795777456200E-08   4.989999299774252E-08   5.116321734141837E-08
   5.245842036195090E-08   5.378641160341659E-08   5.514802110359907E-08
   5.654409991278913E-08   5.797552062571940E-08   5.944317792696433E-08
   6.094798915014727E-08   6.249089485130424E-08   6.407285939676167E-08
   6.569487156589706E-08   6.735794516915843E-08   6.906311968172890E-08
   7.081146089323285E-08   7.260406157388871E-08   7.444204215752652E-08
   7.632655144189545E-08   7.825876730669995E-08   8.023989744981339E-08
   8.227118014212808E-08   8.435388500151536E-08   8.648931378637836E-08
   8.867880120929320E-08   9.092371577124879E-08   9.322546061700349E-08
   9.558547441209732E-08   9.800523224206483E-08   1.004862465344113E-07
   1.030300680039303E-07   1.056382866219505E-07   1.083125326101195E-07
   1.110544774593467E-07   1.138658349745385E-07   1.167483623457839E-07
   1.197038612466548E-07   1.227341789603110E-07   1.258412095341131E-07
   1.290268949634636E-07   1.322932264056188E-07   1.356422454242254E-07
   1.390760452653663E-07   1.425967721659072E-07   1.462066266949648E-07
   1.499078651293359E-07   1.537028008637424E-07   1.575938058567804E-07
   1.615833121134716E-07   1.656738132053453E-07   1.698678658290051E-07
   1.741680914041446E-07   1.785771777120232E-07   1.830978805754168E-07
   1.877330255810974E-07   1.924855098459184E-07   1.973583038276066E-07
   2.023544531813965E-07   2.074770806636651E-07   2.127293880837565E-07
   2.181146583052197E-07   2.236362572977041E-07   2.292976362408021E-07
   2.351023336811508E-07   2.410539777441382E-07   2.471562884016037E-07
   2.534130797969403E-07   2.598282626290610E-07   2.664058465967145E-07
   2.731499429046790E-07   2.800647668334015E-07   2.871546403736849E-07
   2.944239949280769E-07   3.018773740806423E-07   3.095194364368519E-07
   3.173549585353675E-07   3.253888378335331E-07   3.336260957684493E-07
   3.420718808955372E-07   3.507314721065552E-07   3.596102819290839E-07
   3.687138599095303E-07   3.780478960817816E-07   3.876182245236628E-07
   3.974308270034299E-07   4.074918367185746E-07   4.178075421292727E-07
   4.283843908888831E-07   4.392289938739441E-07   4.503481293161909E-07
   4.617487470391779E-07   4.734379728021456E-07   4.854231127538599E-07
   4.977116579991973E-07   5.103112892813352E-07   5.232298817824734E-07
   5.364755100460841E-07   5.500564530237703E-07   5.639811992498892E-07
   5.782584521471674E-07   5.928971354666352E-07   6.079063988652637E-07
   6.232956236248104E-07   6.390744285154337E-07   6.552526758077455E-07
   6.718404774370660E-07   6.888482013237152E-07   7.062864778533169E-07
   7.241662065211449E-07   7.424985627446737E-07   7.612950048485964E-07
   7.805672812266555E-07   8.003274376847893E-07   8.205878249701692E-07
   8.413611064908286E-07   8.626602662307308E-07   8.844986168651874E-07
   9.068898080817383E-07   9.298478351116683E-07   9.533870474775004E-07
   9.775221579619391E-07   1.002268251803855E-06   1.027640796127077E-06
   1.053655649607870E-06   1.080329072387148E-06   1.107677736233626E-06
   1.135718734964236E-06   1.164469595128353E-06   1.193948286962489E-06
   1.224173235622306E-06   1.255163332698984E-06   1.286937948027099E-06
   1.319516941791448E-06   1.352920676940350E-06   1.387170031913188E-06
   1.422286413690171E-06   1.458291771172419E-06   1.495208608900805E-06
   1.533060001122070E-06   1.571869606211031E-06   1.611661681457906E-06
   1.652461098229937E-06   1.694293357516905E-06   1.737184605870117E-06
   1.781161651744926E-06   1.826251982256979E-06   1.872483780362595E-06
   1.919885942474158E-06   1.968488096521366E-06   2.018320620469745E-06
   2.069414661307981E-06   2.121802154515857E-06   2.175515844025121E-06
   2.230589302685575E-06   2.287056953249331E-06   2.344954089886284E-06
   2.404316900244196E-06   2.465182488067350E-06   2.527588896387679E-06
   2.591575131303079E-06   2.657181186357641E-06   2.724448067539041E-06
   2.793417818908851E-06   2.864133548881567E-06   2.936639457168980E-06
   3.010980862406651E-06   3.087204230479683E-06   3.165357203565702E-06
   3.245488629912942E-06   3.327648594372244E-06   3.411888449701999E-06
   3.498260848665498E-06   3.586819776940976E-06   3.677620586864648E-06
   3.770720032028058E-06   3.866176302751267E-06   3.964049062453960E-06
   4.064399484947495E-06   4.167290292670801E-06   4.272785795894390E-06
   4.380951932916802E-06   4.491856311278553E-06   4.605568250019601E-06
   4.722158823006411E-06   4.841700903355967E-06   4.964269208984419E-06
   5.089940349308672E-06   5.218792873130473E-06   5.350907317732508E-06
   5.486366259217492E-06   5.625254364121661E-06   5.767658442334719E-06
   5.913667501359745E-06   6.063372801946454E-06   6.216867915133033E-06
   6.374248780731983E-06   6.535613767296458E-06   6.701063733604917E-06
   6.870702091702053E-06   7.044634871535798E-06   7.222970787230689E-06
   7.405821305038757E-06   7.593300713011007E-06   7.785526192432350E-06
   7.982617891065115E-06   8.184698998246851E-06   8.391895821889026E-06
   8.604337867425395E-06   8.822157918758629E-06   9.045492121256392E-06
   9.274480066848583E-06   9.509264881278586E-06   9.749993313563827E-06
   9.996815827720638E-06   1.024988669681153E-05   1.050936409937334E-05
   1.077541021828624E-05   1.104819134214626E-05   1.132787796920362E-05
   1.161464491393266E-05   1.190867141629974E-05   1.221014125379713E-05
   1.251924285631342E-05   1.283616942391184E-05   1.316111904759034E-05
   1.349429483309889E-05   1.383590502789123E-05   1.418616315129078E-05
   1.454528812795161E-05   1.491350442469837E-05   1.529104219083039E-05
   1.567813740197774E-05   1.607503200759937E-05   1.648197408221517E-05
   1.689921798046676E-05   1.732702449610406E-05   1.776566102499650E-05
   1.821540173227145E-05   1.867652772368376E-05   1.914932722132399E-05
   1.963409574377493E-05   2.013113629082901E-05   2.064075953288232E-05
   2.116328400512325E-05   2.169903630663760E-05   2.224835130455435E-05
   2.281157234335960E-05   2.338905145950997E-05   2.398114960147918E-05
   2.458823685537561E-05   2.521069267627193E-05   2.584890612539116E-05
   2.650327611329790E-05   2.717421164924612E-05   2.786213209684006E-05
   2.856746743616783E-05   2.929065853257115E-05   3.003215741222028E-05
   3.079242754466524E-05   3.157194413254084E-05   3.237119440860658E-05
   3.319067794030629E-05   3.403090694203930E-05   3.489240659533707E-05
   3.577571537714628E-05   3.668138539642349E-05   3.760998273925141E-05
   3.856208782269324E-05   3.953829575760569E-05   4.053921672063788E-05
   4.156547633564892E-05   4.261771606478183E-05   4.369659360943949E-05
   4.480278332141233E-05   4.593697662441536E-05   4.709988244629834E-05
   4.829222766219824E-05   4.951475754891287E-05   5.076823625077804E-05
   5.205344725734061E-05   5.337119389312632E-05   5.472229981980728E-05
   5.610760955108513E-05   5.752798898061001E-05   5.898432592326681E-05
   6.047753067016660E-05   6.200853655769000E-05   6.357830055093945E-05
   6.518780384196407E-05   6.683805246313179E-05   6.853007791603285E-05
   7.026493781630658E-05   7.204371655479678E-05   7.386752597544690E-05
   7.573750607036108E-05   7.765482569246487E-05   7.962068328621056E-05
   8.163630763678629E-05   8.370295863829500E-05   8.582192808138615E-05
   8.799454046083082E-05   9.022215380354744E-05   9.250616051759326E-05
   9.484798826265585E-05   9.724910084258713E-05   9.971099912053852E-05
   1.022352219572711E-04   1.048233471732246E-04   1.074769925349516E-04
   1.101978167665302E-04   1.129875205865895E-04   1.158478477715982E-04
   1.187805862460771E-04   1.217875692004235E-04   1.248706762370423E-04
   1.280318345455031E-04   1.312730201074595E-04   1.345962589320798E-04
   1.380036283227695E-04   1.414972581759727E-04   1.450793323128664E-04
   1.487520898447840E-04   1.525178265732167E-04   1.563788964252760E-04
   1.603377129255095E-04   1.643967507049961E-04   1.685585470486624E-04
   1.728257034817875E-04   1.772008873966942E-04   1.816868337206400E-04
   1.862863466259545E-04   1.910023012834940E-04   1.958376456605078E-04
   2.007954023640466E-04   2.058786705310643E-04   2.110906277663957E-04
   2.164345321298276E-04   2.219137241735008E-04   2.275316290309271E-04
   2.332917585589227E-04   2.391977135338016E-04   2.452531859032078E-04
   2.514619610949884E-04   2.578279203845633E-04   2.643550433222670E-04
   2.710474102221868E-04   2.779092047140568E-04   2.849447163597993E-04
   2.921583433363652E-04   2.995545951865418E-04   3.071380956394597E-04
   3.149135855025627E-04   3.228859256268509E-04   3.310600999472599E-04
   3.394412186000776E-04   3.480345211193526E-04   3.568453797143012E-04
   3.658793026297575E-04   3.751419375917863E-04   3.846390753406075E-04
   3.943766532530514E-04   4.043607590568138E-04   4.145976346388452E-04
   4.250936799502478E-04   4.358554570101471E-04   4.468896940110333E-04
   4.582032895281536E-04   4.698033168355983E-04   4.816970283317738E-04
   4.938918600770562E-04   5.063954364464571E-04   5.192155749002258E-04
   5.323602908753837E-04   5.458378028012456E-04   5.596565372420927E-04
   5.738251341702095E-04   5.883524523725993E-04   6.032475749947700E-04
   6.185198152250630E-04   6.341787221231017E-04   6.502340865960080E-04
   6.666959475261429E-04   6.835745980542174E-04   7.008805920217037E-04
   7.186247505766134E-04   7.368181689467689E-04   7.554722233848249E-04
   7.745985782894102E-04   7.942091935068359E-04   8.143163318179808E-04
   8.349325666150342E-04   8.560707897729238E-04   8.777442197203736E-04
   8.999664097156410E-04   9.227512563321543E-04   9.461130081593562E-04
   9.700662747242294E-04   9.946260356391004E-04   1.019807649981453E-03
   1.045626865911667E-03   1.072099830534688E-03   1.099243100011850E-03
   1.127073649929173E-03   1.155608885928648E-03   1.184866654609201E-03
   1.214865254704159E-03   1.245623448542227E-03   1.277160473799205E-03
   1.309496055547755E-03   1.342650418612850E-03   1.376644300240602E-03
   1.411498963088430E-03   1.447236208544743E-03   1.483878390386430E-03
   1.521448428782779E-03   1.559969824654568E-03   1.599466674397333E-03
   1.639963684978049E-03   1.681486189414648E-03   1.724060162648102E-03
   1.767712237816990E-03   1.812469722944722E-03   1.858360618049887E-03
   1.905413632690372E-03   1.953658203952286E-03   2.003124514894857E-03
   2.053843513462866E-03   2.105846931878412E-03   2.159167306524062E-03
   2.213837998329843E-03   2.269893213676732E-03   2.327368025829655E-03
   2.386298396913360E-03   2.446721200444762E-03   2.508674244435819E-03
   2.572196295081227E-03   2.637327101045612E-03   2.704107418365305E-03
   2.772579035980008E-03   2.842784801910231E-03   2.914768650096557E-03
   2.988575627917320E-03   3.064251924401625E-03   3.141844899154974E-03
   3.221403112015346E-03   3.302976353457778E-03   3.386615675766097E-03
   3.472373424990792E-03   3.560303273712436E-03   3.650460254630617E-03
   3.742900794998697E-03   3.837682751925173E-03   3.934865448563023E-03
   4.034509711208608E-03   4.136677907332559E-03   4.241433984565226E-03
   4.348843510659958E-03   4.458973714457926E-03   4.571893527878630E-03
   4.687673628960896E-03   4.806386485979549E-03   4.928106402663467E-03
   5.052909564541361E-03   5.180874086441918E-03   5.312080061175770E-03
   5.446609609426938E-03   5.584546930882184E-03   5.725978356627142E-03
   5.870992402838374E-03   6.019679825801517E-03   6.172133678285651E-03
   6.328449367304823E-03   6.488724713298132E-03   6.653060010759968E-03
   6.821558090352923E-03   6.994324382535914E-03   7.171466982740645E-03
   7.353096718130019E-03   7.539327215972204E-03   7.730274973664785E-03
   7.926059430443409E-03   8.126803040809762E-03   8.332631349714006E-03
   8.543673069526660E-03   8.760060158835693E-03   8.981927903103900E-03
   9.209414997222269E-03   9.442663629994722E-03   9.681819570589389E-03
   9.927032256991784E-03   1.017845488649442E-02   1.043624450825742E-02
   1.070056211797412E-02   1.097157275467463E-02   1.124944559970022E-02
   1.153435407788003E-02   1.182647596094076E-02   1.212599347317867E-02
   1.243309339942185E-02   1.274796719530932E-02   1.307081109991149E-02
   1.340182625071442E-02   1.374121880098849E-02   1.408920003955868E-02
   1.444598651299192E-02   1.481180015021284E-02   1.518686838955606E-02
   1.557142430825981E-02   1.596570675440007E-02   1.636996048126137E-02
   1.678443628413388E-02   1.720939113952132E-02   1.764508834673806E-02
   1.809179767186640E-02   1.854979549403869E-02   1.901936495399952E-02
   1.950079610489537E-02   1.999438606522945E-02   2.050043917390795E-02
   2.101926714729446E-02   2.155118923817536E-02   2.209653239652663E-02
   2.265563143195794E-02   2.322882917769382E-02   2.381647665593595E-02
   2.441893324443154E-02   2.503656684405321E-02   2.566975404717563E-02
   2.631888030660966E-02   2.698434010483231E-02   2.766653712322269E-02
   2.836588441098678E-02   2.908280455342317E-02   2.981772983914848E-02
   3.057110242586751E-02   3.134337450423405E-02   3.213500845930843E-02
   3.294647702907529E-02   3.377826345943685E-02   3.463086165505013E-02
   3.550477632532101E-02   3.640052312481255E-02   3.731862878726525E-02
   3.825963125235993E-02   3.922407978428839E-02   4.021253508112071E-02
   4.122556937388130E-02   4.226376651416288E-02   4.332772204901714E-02
   4.441804328176988E-02   4.553534931730522E-02   4.668027109025941E-02
   4.785345137445221E-02   4.905554477176221E-02   5.028721767853048E-02
   5.154914822743897E-02   5.284202620267114E-02   5.416655292601370E-02
   5.552344111139795E-02   5.691341468521761E-02   5.833720856958158E-02
   5.979556842547842E-02   6.128925035263583E-02   6.281902054265481E-02
   6.438565488178853E-02   6.598993849951051E-02   6.763266525878693E-02
   6.931463718372469E-02   7.103666382001331E-02   7.279956152331921E-02
   7.460415267051504E-02   7.645126478834557E-02   7.834172959384168E-02
   8.027638194048795E-02   8.225605866384576E-02   8.428159732001134E-02
   8.635383480996431E-02   8.847360588253278E-02   9.064174150836052E-02
   9.285906711692682E-02   9.512640068832184E-02   9.744455069114058E-02
   9.981431385751699E-02   1.022364727859802E-01   1.047117933624903E-01
   1.072410219896843E-01   1.098248826140630E-01   1.124640735405577E-01
   1.151592640236486E-01   1.179110906239721E-01   1.207201533191429E-01
   1.235870113573542E-01   1.265121788421950E-01   1.294961200370557E-01
   1.325392443774930E-01   1.356419011799800E-01   1.388043740356248E-01
   1.420268748776689E-01   1.453095377119244E-01   1.486524119997646E-01
   1.520554556838706E-01   1.555185278476703E-01   1.590413810003006E-01
   1.626236529799957E-01   1.662648584700767E-01   1.699643801232006E-01
   1.737214592912498E-01   1.775351863602302E-01   1.814044906917965E-01
   1.853281301756070E-01   1.893046803995972E-01   1.933325234485214E-01
   1.974098363447492E-01   2.015345791493453E-01   2.057044827459554E-01
   2.099170363349580E-01   2.141694746707880E-01   2.184587650812975E-01
   2.227815943145074E-01   2.271343552651977E-01   2.315131336414069E-01
   2.359136946392056E-01   2.403314697029845E-01   2.447615434580093E-01
   2.491986409121756E-01   2.536371150346684E-01   2.580709348306675E-01
   2.624936740432773E-01   2.668985006264422E-01   2.712781671457933E-01
   2.756250022779628E-01   2.799309035929576E-01   2.841873318185391E-01
   2.883853068000837E-01   2.925154053840681E-01   2.965677614678163E-01
   3.005320684724367E-01   3.043975845096262E-01   3.081531405260189E-01
   3.117871517207461E-01   3.152876325424520E-01   3.186422155808774E-01
   3.218381746748283E-01   3.248624525624055E-01   3.277016934003464E-01
   3.303422804765598E-01   3.327703794329001E-01   3.349719873032024E-01
   3.369329876538885E-01   3.386392120903167E-01   3.400765083606311E-01
   3.412308152493755E-01   3.420882444046497E-01   3.426351691842224E-01
   3.428583205368607E-01   3.427448898542553E-01   3.422826386354658E-01
   3.414600146988687E-01   3.402662745554457E-01   3.386916114211561E-01
   3.367272881945795E-01   3.343657745585781E-01   3.316008871812549E-01
   3.284279317920629E-01   3.248438456939463E-01   3.208473390426871E-01
   3.164390329813943E-01   3.116215924630613E-01   3.063998513297317E-01
   3.007809269459560E-01   2.947743214108008E-01   2.883920061011619E-01
   2.816484860351200E-01   2.745608402940778E-01   2.671487345138975E-01
   2.594344012570435E-01   2.514425839195186E-01   2.432004397192660E-01
   2.347373972689173E-01   2.260849642684863E-01   2.172764809774691E-01
   2.083468153559202E-01   1.993319961166620E-01   1.902687804224736E-01
   1.811941536095071E-01   1.721447591380983E-01   1.631562579801918E-01
   1.542626178633967E-01   1.454953342177269E-01   1.368825863217654E-01
   1.284483340263613E-01   1.202113625466457E-01   1.121842851521866E-01
   1.043725161380204E-01   9.677322920487572E-02   8.938113883722276E-02
   8.221120876251620E-02   7.528328377581539E-02   6.861587299487526E-02
   6.222598051975003E-02   5.612894204115959E-02   5.033826966849131E-02
   4.486550734149031E-02   3.972009925678144E-02   3.490927377746411E-02
   3.043794529736654E-02   2.630863649781701E-02   2.252142336096563E-02
   1.907390518764918E-02   1.596120170798232E-02   1.317597916882840E-02
   1.070850703463988E-02   8.546746649084391E-03   6.676472873941242E-03
   5.081425953778029E-03   3.743491048687653E-03   2.642928165669245E-03
   1.758645572236373E-03   1.068471902905155E-03   5.494817528834961E-04
   1.783422205652307E-04  -6.831216637737114E-05  -2.134806551978841E-04
  -2.793763220002576E-04  -2.869882361687948E-04  -2.556292730924170E-04
  -2.024733910663823E-04  -1.420864774861474E-04  -8.595519674997609E-05
  -4.201867446640417E-05  -1.420837541754594E-05  -2.002230282016626E-06
   0.000000000000000E+00   0.000000000000000E+00   0.000000000000000E+00
   0.000000000000000E+00   0.000000000000000E+00   0.000000000000000E+00
   0.000000000000000E+00   0.000000000000000E+00   0.000000000000000E+00
   0.000000000000000E+00   0.000000000000000E+00   0.000000000000000E+00
   0.000000000000000E+00   0.000000000000000E+00   0.000000000000000E+00
   0.000000000000000E+00   0.000000000000000E+00   0.000000000000000E+00
   0.000000000000000E+00   0.000000000000000E+00   0.000000000000000E+00
   0.000000000000000E+00   0.000000000000000E+00   0.000000000000000E+00
   0.000000000000000E+00   0.000000000000000E+00   0.000000000000000E+00
   0.000000000000000E+00   0.000000000000000E+00   0.000000000000000E+00
   0.000000000000000E+00   0.000000000000000E+00   0.000000000000000E+00
   0.000000000000000E+00   0.000000000000000E+00   0.000000000000000E+00
   0.000000000000000E+00   0.000000000000000E+00   0.000000000000000E+00
   0.000000000000000E+00   0.000000000000000E+00   0.000000000000000E+00
   0.000000000000000E+00   0.000000000000000E+00   0.000000000000000E+00
   0.000000000000000E+00   0.000000000000000E+00   0.000000000000000E+00
   0.000000000000000E+00   0.000000000000000E+00   0.000000000000000E+00
   0.000000000000000E+00   0.000000000000000E+00   0.000000000000000E+00
   0.000000000000000E+00   0.000000000000000E+00   0.000000000000000E+00
   0.000000000000000E+00   0.000000000000000E+00   0.000000000000000E+00
   0.000000000000000E+00   0.000000000000000E+00   0.000000000000000E+00
   0.000000000000000E+00   0.000000000000000E+00   0.000000000000000E+00
   0.000000000000000E+00   0.000000000000000E+00   0.000000000000000E+00
   0.000000000000000E+00   0.000000000000000E+00   0.000000000000000E+00
   0.000000000000000E+00   0.000000000000000E+00   0.000000000000000E+00
   0.000000000000000E+00   0.000000000000000E+00   0.000000000000000E+00
   0.000000000000000E+00   0.000000000000000E+00   0.000000000000000E+00
   0.000000000000000E+00   0.000000000000000E+00   0.000000000000000E+00
   0.000000000000000E+00   0.000000000000000E+00   0.000000000000000E+00
   0.000000000000000E+00   0.000000000000000E+00   0.000000000000000E+00
   0.000000000000000E+00   0.000000000000000E+00   0.000000000000000E+00
   0.000000000000000E+00   0.000000000000000E+00   0.000000000000000E+00
   0.000000000000000E+00   0.000000000000000E+00   0.000000000000000E+00
   0.000000000000000E+00   0.000000000000000E+00   0.000000000000000E+00
   0.000000000000000E+00   0.000000000000000E+00   0.000000000000000E+00
   0.000000000000000E+00   0.000000000000000E+00   0.000000000000000E+00
   0.000000000000000E+00   0.000000000000000E+00   0.000000000000000E+00
   0.000000000000000E+00   0.000000000000000E+00   0.000000000000000E+00
   0.000000000000000E+00   0.000000000000000E+00   0.000000000000000E+00
   0.000000000000000E+00   0.000000000000000E+00   0.000000000000000E+00
   0.000000000000000E+00   0.000000000000000E+00   0.000000000000000E+00
   0.000000000000000E+00   0.000000000000000E+00   0.000000000000000E+00
   0.000000000000000E+00   0.000000000000000E+00   0.000000000000000E+00
   0.000000000000000E+00   0.000000000000000E+00   0.000000000000000E+00
   0.000000000000000E+00   0.000000000000000E+00   0.000000000000000E+00
   0.000000000000000E+00   0.000000000000000E+00   0.000000000000000E+00
   0.000000000000000E+00   0.000000000000000E+00   0.000000000000000E+00
   0.000000000000000E+00   0.000000000000000E+00   0.000000000000000E+00
   0.000000000000000E+00   0.000000000000000E+00   0.000000000000000E+00
   0.000000000000000E+00   0.000000000000000E+00   0.000000000000000E+00
   0.000000000000000E+00   0.000000000000000E+00   0.000000000000000E+00
   0.000000000000000E+00   0.000000000000000E+00   0.000000000000000E+00
   0.000000000000000E+00   0.000000000000000E+00   0.000000000000000E+00
   0.000000000000000E+00   0.000000000000000E+00   0.000000000000000E+00
   0.000000000000000E+00   0.000000000000000E+00   0.000000000000000E+00
   0.000000000000000E+00   0.000000000000000E+00   0.000000000000000E+00
   0.000000000000000E+00   0.000000000000000E+00   0.000000000000000E+00
   0.000000000000000E+00   0.000000000000000E+00   0.000000000000000E+00
   0.000000000000000E+00   0.000000000000000E+00   0.000000000000000E+00
   0.000000000000000E+00   0.000000000000000E+00   0.000000000000000E+00
   0.000000000000000E+00   0.000000000000000E+00   0.000000000000000E+00
   0.000000000000000E+00   0.000000000000000E+00   0.000000000000000E+00
   0.000000000000000E+00   0.000000000000000E+00   0.000000000000000E+00
   0.000000000000000E+00   0.000000000000000E+00   0.000000000000000E+00
   0.000000000000000E+00   0.000000000000000E+00   0.000000000000000E+00
   0.000000000000000E+00   0.000000000000000E+00   0.000000000000000E+00
   0.000000000000000E+00   0.000000000000000E+00   0.000000000000000E+00
   0.000000000000000E+00   0.000000000000000E+00   0.000000000000000E+00
   0.000000000000000E+00   0.000000000000000E+00   0.000000000000000E+00
   0.000000000000000E+00   0.000000000000000E+00   0.000000000000000E+00
   0.000000000000000E+00   0.000000000000000E+00   0.000000000000000E+00
   0.000000000000000E+00   0.000000000000000E+00   0.000000000000000E+00
   0.000000000000000E+00   0.000000000000000E+00   0.000000000000000E+00
   0.000000000000000E+00   0.000000000000000E+00   0.000000000000000E+00
   0.000000000000000E+00   0.000000000000000E+00   0.000000000000000E+00
   0.000000000000000E+00   0.000000000000000E+00   0.000000000000000E+00
   0.000000000000000E+00   0.000000000000000E+00   0.000000000000000E+00
   0.000000000000000E+00   0.000000000000000E+00   0.000000000000000E+00
   0.000000000000000E+00   0.000000000000000E+00   0.000000000000000E+00
   0.000000000000000E+00   0.000000000000000E+00   0.000000000000000E+00
   0.000000000000000E+00   0.000000000000000E+00   0.000000000000000E+00
   0.000000000000000E+00   0.000000000000000E+00   0.000000000000000E+00
   0.000000000000000E+00   0.000000000000000E+00   0.000000000000000E+00
   0.000000000000000E+00   0.000000000000000E+00   0.000000000000000E+00
   0.000000000000000E+00   0.000000000000000E+00   0.000000000000000E+00
   0.000000000000000E+00   0.000000000000000E+00   0.000000000000000E+00
   0.000000000000000E+00   0.000000000000000E+00   0.000000000000000E+00
   0.000000000000000E+00   0.000000000000000E+00   0.000000000000000E+00
   0.000000000000000E+00   0.000000000000000E+00   0.000000000000000E+00
   0.000000000000000E+00   0.000000000000000E+00   0.000000000000000E+00
   0.000000000000000E+00   0.000000000000000E+00   0.000000000000000E+00
   0.000000000000000E+00   0.000000000000000E+00   0.000000000000000E+00
   0.000000000000000E+00   0.000000000000000E+00   0.000000000000000E+00
   0.000000000000000E+00   0.000000000000000E+00   0.000000000000000E+00
   0.000000000000000E+00   0.000000000000000E+00   0.000000000000000E+00
   0.000000000000000E+00   0.000000000000000E+00   0.000000000000000E+00
   0.000000000000000E+00   0.000000000000000E+00   0.000000000000000E+00
   0.000000000000000E+00   0.000000000000000E+00   0.000000000000000E+00
   0.000000000000000E+00   0.000000000000000E+00   0.000000000000000E+00
   0.000000000000000E+00   0.000000000000000E+00   0.000000000000000E+00
   0.000000000000000E+00   0.000000000000000E+00   0.000000000000000E+00
   0.000000000000000E+00   0.000000000000000E+00   0.000000000000000E+00
   0.000000000000000E+00   0.000000000000000E+00   0.000000000000000E+00
   0.000000000000000E+00   0.000000000000000E+00   0.000000000000000E+00
   0.000000000000000E+00   0.000000000000000E+00   0.000000000000000E+00
   0.000000000000000E+00   0.000000000000000E+00   0.000000000000000E+00
   0.000000000000000E+00   0.000000000000000E+00   0.000000000000000E+00
   0.000000000000000E+00   0.000000000000000E+00   0.000000000000000E+00
   0.000000000000000E+00   0.000000000000000E+00   0.000000000000000E+00
   0.000000000000000E+00   0.000000000000000E+00   0.000000000000000E+00
   0.000000000000000E+00   0.000000000000000E+00   0.000000000000000E+00
   0.000000000000000E+00   0.000000000000000E+00   0.000000000000000E+00
   0.000000000000000E+00   0.000000000000000E+00   0.000000000000000E+00
      </PP_QIJL.3.3.0>
      <PP_QIJL.3.3.2 first_index="3" second_index="3" composite_index="6" angular_momentum="2" size="1095">
   4.256082488061448E-15   4.474296494619125E-15   4.703698571846628E-15
   4.944862344339701E-15   5.198390847051869E-15   5.464918033195323E-15
   5.745110359453623E-15   6.039668452469955E-15   6.349328860777950E-15
   6.674865896556071E-15   7.017093571810479E-15   7.376867633828269E-15
   7.755087704990537E-15   8.152699532295923E-15   8.570697352219798E-15
   9.010126376822033E-15   9.472085407320455E-15   9.957729581664942E-15
   1.046827326298249E-14   1.100499307611622E-14   1.156923109985062E-14
   1.216239822280588E-14   1.278597767139245E-14   1.344152871864758E-14
   1.413069058322801E-14   1.485518652830780E-14   1.561682817063159E-14
   1.641752001049713E-14   1.725926419399509E-14   1.814416551941417E-14
   1.907443670032933E-14   2.005240389853482E-14   2.108051254065615E-14
   2.216133343298609E-14   2.329756918983505E-14   2.449206099146917E-14
   2.574779568853565E-14   2.706791327073931E-14   2.845571471844596E-14
   2.991467025684635E-14   3.144842803331869E-14   3.306082323968996E-14
   3.475588770220440E-14   3.653785996318000E-14   3.841119587956261E-14
   4.038057976487788E-14   4.245093610244395E-14   4.462744185913238E-14
   4.691553943046832E-14   4.932095024944040E-14   5.184968909304691E-14
   5.450807912235511E-14   5.730276769367935E-14   6.024074298041472E-14
   6.332935144709024E-14   6.657631621933322E-14   6.998975639568227E-14
   7.357820734953668E-14   7.735064207200687E-14   8.131649360903693E-14
   8.548567864889818E-14   8.986862231904104E-14   9.447628425430556E-14
   9.932018600167537E-14   1.044124398301036E-13   1.097657790174447E-13
   1.153935896902311E-13   1.213099442959060E-13   1.275296367912122E-13
   1.340682196347268E-13   1.409420426760362E-13   1.481682940388037E-13
   1.557650430999495E-13   1.637512856724180E-13   1.721469915045128E-13
   1.809731542145645E-13   1.902518437858051E-13   2.000062617527034E-13
   2.102607992167597E-13   2.210410978368290E-13   2.323741139464747E-13
   2.442881859586862E-13   2.568131052265015E-13   2.699801905367213E-13
   2.838223664229945E-13   2.983742454940824E-13   3.136722149831826E-13
   3.297545277347148E-13   3.466613978560879E-13   3.644351012736308E-13
   3.831200814441100E-13   4.027630604861896E-13   4.234131560097017E-13
   4.451220039348634E-13   4.679438876085581E-13   4.919358735405158E-13
   5.171579540988296E-13   5.436731975215948E-13   5.715479056197873E-13
   6.008517795657202E-13   6.316580941816098E-13   6.640438811640951E-13
   6.980901217028334E-13   7.338819489748293E-13   7.715088610208398E-13
   8.110649445361182E-13   8.526491101351355E-13   8.963653396785188E-13
   9.423229462806614E-13   9.906368476481612E-13   1.041427853432533E-12
   1.094822967315768E-12   1.150955704584070E-12   1.209966425983859E-12
   1.272002688694882E-12   1.337219615297967E-12   1.405780281660092E-12
   1.477856124706642E-12   1.553627371100461E-12   1.633283487899666E-12
   1.717023656320993E-12   1.805057269793427E-12   1.897604457547389E-12
   1.994896635048780E-12   2.097177082654208E-12   2.204701553934263E-12
   2.317738915186046E-12   2.436571817733954E-12   2.561497404699827E-12
   2.692828054009750E-12   2.830892159495265E-12   2.976034952042302E-12
   3.128619362840918E-12   3.289026930894487E-12   3.457658757057522E-12
   3.634936506987574E-12   3.821303465519224E-12   4.017225645096496E-12
   4.223192951035265E-12   4.439720406529503E-12   4.667349440464181E-12
   4.906649241255289E-12   5.158218180101932E-12   5.422685307209398E-12
   5.700711924724509E-12   5.992993240316072E-12   6.300260105535450E-12
   6.623280843303711E-12   6.962863169094956E-12   7.319856210619803E-12
   7.695152631058776E-12   8.089690861155056E-12   8.504457445747544E-12
   8.940489510611682E-12   9.398877355776342E-12   9.880767181800816E-12
   1.038736395582939E-11   1.091993442458938E-11   1.147981028186664E-11
   1.206839149837871E-11   1.268714982237121E-11   1.333763245969123E-11
   1.402146594253881E-11   1.474036019657019E-11   1.549611281652280E-11
   1.629061356105138E-11   1.712584907801662E-11   1.800390787203858E-11
   1.892698552673813E-11   1.989739019472327E-11   2.091754836904646E-11
   2.199001095056661E-11   2.311745962638310E-11   2.430271357529321E-11
   2.554873651703824E-11   2.685864412296260E-11   2.823571180661936E-11
   2.968338291379649E-11   3.120527733244635E-11   3.280520054404450E-11
   3.448715313900832E-11   3.625534081997156E-11   3.811418491792105E-11
   4.006833344749442E-11   4.212267272907896E-11   4.428233960676901E-11
   4.655273429273654E-11   4.893953387012289E-11   5.144870648821933E-11
   5.408652628542709E-11   5.685958907730577E-11   5.977482884894354E-11
   6.283953509287453E-11   6.606137103590264E-11   6.944839280040036E-11
   7.300906954798879E-11   7.675230465597266E-11   8.068745797946624E-11
   8.482436925488060E-11   8.917338270328505E-11   9.374537289515135E-11
   9.855177194116329E-11   1.036045980770585E-10   1.089164857139861E-10
   1.145007170295062E-10   1.203712551782136E-10   1.265427792050311E-10
   1.330307207484482E-10   1.398513026254834E-10   1.470215793948358E-10
   1.545594799996355E-10   1.624838525964249E-10   1.708145116824293E-10
   1.795722876389598E-10   1.887790788148121E-10   1.984579062798627E-10
   2.086329713857855E-10   2.193297162777595E-10   2.305748875084878E-10
   2.423966029135536E-10   2.548244219153017E-10   2.678894194310417E-10
   2.816242635703065E-10   2.960632973154526E-10   3.112426243897934E-10
   3.272001995279236E-10   3.439759233739577E-10   3.616117422448770E-10
   3.801517530084326E-10   3.996423133377944E-10   4.201321576185480E-10
   4.416725187978667E-10   4.643172564804022E-10   4.881229915911844E-10
   5.131492479421616E-10   5.394586010562483E-10   5.671168346210077E-10
   5.961931049629853E-10   6.267601139539375E-10   6.588942907811634E-10
   6.926759830363042E-10   7.281896576003848E-10   7.655241118271553E-10
   8.047726955527397E-10   8.460335444865171E-10   8.894098255666483E-10
   9.350099948936016E-10   9.829480688863912E-10   1.033343909339368E-09
   1.086323523092100E-09   1.142019377061376E-09   1.200570729422858E-09
   1.262123977770116E-09   1.326833025121373E-09   1.394859664688764E-09
   1.466373984371844E-09   1.541554791986422E-09   1.620590062291488E-09
   1.703677406931638E-09   1.791024568469522E-09   1.882849939743093E-09
   1.979383109845759E-09   2.080865438093959E-09   2.187550657416745E-09
   2.299705508675368E-09   2.417610407498149E-09   2.541560145297278E-09
   2.671864626219404E-09   2.808849641871821E-09   2.952857685760366E-09
   3.104248809474282E-09   3.263401522757827E-09   3.430713739717710E-09
   3.606603773531043E-09   3.791511382139431E-09   3.985898867542194E-09
   4.190252231435819E-09   4.405082390087131E-09   4.630926451476031E-09
   4.868349057898931E-09   5.117943797387438E-09   5.380334687469157E-09
   5.656177734977546E-09   5.946162575808264E-09   6.251014198718778E-09
   6.571494757357774E-09   6.908405476972481E-09   7.262588651166735E-09
   7.634929756814020E-09   8.026359658337001E-09   8.437856939872610E-09
   8.870450347233463E-09   9.325221367020860E-09   9.803306913343840E-09
   1.030590219102816E-08   1.083426366407390E-08   1.138971220379573E-08
   1.197363639447250E-08   1.258749598957267E-08   1.323282558279120E-08
   1.391123841684628E-08   1.462443042980735E-08   1.537418449871793E-08
   1.616237487797543E-08   1.699097189746967E-08   1.786204688033090E-08
   1.877777732263605E-08   1.974045232823328E-08   2.075247832966332E-08
   2.181638511429766E-08   2.293483213013419E-08   2.411061511830422E-08
   2.534667316238988E-08   2.664609592101100E-08   2.801213147961117E-08
   2.944819435590267E-08   3.095787407466674E-08   3.254494416775672E-08
   3.421337150342440E-08   3.596732631421146E-08   3.781119261243161E-08
   3.974957894462695E-08   4.178733018098895E-08   4.392953944917202E-08
   4.618156085178389E-08   4.854902295763946E-08   5.103784274453982E-08
   5.365424040773632E-08   5.640475496965461E-08   5.929626049449465E-08
   6.233598332582355E-08   6.553152016453848E-08   6.889085695311636E-08
   7.242238886020736E-08   7.613494127406587E-08   8.003779181289011E-08
   8.414069349924806E-08   8.845389913025962E-08   9.298818674874107E-08
   9.775488681292259E-08   1.027659102211055E-07   1.080337782861078E-07
   1.135716536628867E-07   1.193933736619022E-07   1.255134843303796E-07
   1.319472771394344E-07   1.387108268823910E-07   1.458210319488952E-07
   1.532956563906359E-07   1.611533745230381E-07   1.694138170602657E-07
   1.780976205402983E-07   1.872264785687931E-07   1.968231960879947E-07
   2.069117463170198E-07   2.175173300965869E-07   2.286664396970697E-07
   2.403869237834732E-07   2.527080577929187E-07   2.656606165280828E-07
   2.792769508944327E-07   2.935910689493061E-07   3.086387201375280E-07
   3.244574850243541E-07   3.410868685301657E-07   3.585683987119853E-07
   3.769457303816265E-07   3.962647535544350E-07   4.165737082065816E-07
   4.379233045283184E-07   4.603668486227259E-07   4.839603765584100E-07
   5.087627931938614E-07   5.348360188054103E-07   5.622451440860992E-07
   5.910585917111681E-07   6.213482870967017E-07   6.531898373563767E-07
   6.866627195681173E-07   7.218504792218448E-07   7.588409375330645E-07
   7.977264107355802E-07   8.386039394150887E-07   8.815755302316579E-07
   9.267484100812815E-07   9.742352927694405E-07   1.024154659233587E-06
   1.076631052688387E-06   1.131795388462617E-06   1.189785279515261E-06
   1.250745378607639E-06   1.314827738498186E-06   1.382192189136850E-06
   1.453006736092093E-06   1.527447977440825E-06   1.605701542920173E-06
   1.687962555247175E-06   1.774436114893623E-06   1.865337809438517E-06
   1.960894249594205E-06   2.061343631088593E-06   2.166936326852674E-06
   2.277935508326705E-06   2.394617798646653E-06   2.517273958927007E-06
   2.646209610161846E-06   2.781745990719681E-06   2.924220753470862E-06
   3.073988803242872E-06   3.231423175840397E-06   3.396915963408440E-06
   3.570879285786987E-06   3.753746311202672E-06   3.945972329574263E-06
   4.148035879761308E-06   4.360439933934519E-06   4.583713142799884E-06
   4.818411143423399E-06   5.065117933868629E-06   5.324447317126338E-06
   5.597044418780088E-06   5.883587281359361E-06   6.184788539958854E-06
   6.501397181875738E-06   6.834200396757472E-06   7.184025519200487E-06
   7.551742070753085E-06   7.938263904619563E-06   8.344551459360251E-06
   8.771614126433011E-06   9.220512737453717E-06   9.692362177549810E-06
   1.018833413051983E-05   1.070965996253895E-05   1.125763375218199E-05
   1.183361547271030E-05   1.243903433553811E-05   1.307539230215114E-05
   1.374426777306840E-05   1.444731946277806E-05   1.518629047027209E-05
   1.596301255398523E-05   1.677941062256177E-05   1.763750745134348E-05
   1.853942863566755E-05   1.948740779417604E-05   2.048379203216557E-05
   2.153104768080480E-05   2.263176632290672E-05   2.378867112255676E-05
   2.500462347039571E-05   2.628262996297610E-05   2.762584973169846E-05
   2.903760213747285E-05   3.052137485099507E-05   3.208083233720500E-05
   3.371982476218234E-05   3.544239734599248E-05   3.725280018137859E-05
   3.915549854123752E-05   4.115518370092048E-05   4.325678429747889E-05
   4.546547825475547E-05   4.778670530053397E-05   5.022618010534798E-05
   5.278990607280152E-05   5.548418981311289E-05   5.831565633362338E-05
   6.129126498055724E-05   6.441832616871090E-05   6.770451893672581E-05
   7.115790936869074E-05   7.478696992287070E-05   7.860059971224354E-05
   8.260814578191054E-05   8.681942543087122E-05   9.124474962932661E-05
   9.589494758340526E-05   1.007813925007199E-04   1.059160286165900E-04
   1.113113995382758E-04   1.169806779711364E-04   1.229376968915238E-04
   1.291969822351854E-04   1.357737871715336E-04   1.426841280399431E-04
   1.499448220237141E-04   1.575735266445472E-04   1.655887811627399E-04
   1.740100499692679E-04   1.828577680643308E-04   1.921533887183197E-04
   2.019194334147909E-04   2.121795441807031E-04   2.229585384137430E-04
   2.342824663195368E-04   2.461786710780150E-04   2.586758518622223E-04
   2.718041298383184E-04   2.855951172805570E-04   3.000819899409449E-04
   3.152995628175018E-04   3.312843694735992E-04   3.480747450632870E-04
   3.657109132272686E-04   3.842350770267779E-04   4.036915140929087E-04
   4.241266761722893E-04   4.455892932600653E-04   4.681304825137178E-04
   4.918038621542412E-04   5.166656705629602E-04   5.427748907937220E-04
   5.701933807255482E-04   5.989860090891068E-04   6.292207976099178E-04
   6.609690695160207E-04   6.943056046685204E-04   7.293088015811335E-04
   7.660608466018815E-04   8.046478905395240E-04   8.451602330253342E-04
   8.876925149091108E-04   9.323439189951831E-04   9.792183794357287E-04
   1.028424800102185E-03   1.080077282267307E-03   1.134295361935474E-03
   1.191204257167953E-03   1.250935125756027E-03   1.313625333600644E-03
   1.379418734167007E-03   1.448465959383200E-03   1.520924722361037E-03
   1.596960132321325E-03   1.676745022106651E-03   1.760460288670584E-03
   1.848295246933556E-03   1.940447997394485E-03   2.037125807888279E-03
   2.138545509877807E-03   2.244933909663309E-03   2.356528214889160E-03
   2.473576476720719E-03   2.596338048051007E-03   2.725084058093150E-03
   2.860097903691033E-03   3.001675757672715E-03   3.150127094544528E-03
   3.305775233805837E-03   3.468957901133982E-03   3.640027807661065E-03
   3.819353247528749E-03   4.007318713867361E-03   4.204325533302137E-03
   4.410792519040710E-03   4.627156642538594E-03   4.853873723679620E-03
   5.091419139340712E-03   5.340288550132686E-03   5.600998645029512E-03
   5.874087903502639E-03   6.160117374681765E-03   6.459671472951302E-03
   6.773358789272440E-03   7.101812917391440E-03   7.445693293953632E-03
   7.805686051387052E-03   8.182504882255203E-03   8.576891913597498E-03
   8.989618589580752E-03   9.421486560576887E-03   9.873328576553491E-03
   1.034600938242560E-02   1.084042661275065E-02   1.135751168287399E-02
   1.189823067333247E-02   1.246358520400192E-02   1.305461329413739E-02
   1.367239020409002E-02   1.431802925409860E-02   1.499268261514655E-02
   1.569754206643680E-02   1.643383971358237E-02   1.720284866112087E-02
   1.800588363245132E-02   1.884430152975175E-02   1.971950192586928E-02
   2.063292747958200E-02   2.158606426500674E-02   2.258044200528103E-02
   2.361763419996834E-02   2.469925813493329E-02   2.582697476270404E-02
   2.700248844058476E-02   2.822754651300382E-02   2.950393872378513E-02
   3.083349644320984E-02   3.221809169390438E-02   3.365963595874080E-02
   3.516007875307799E-02   3.672140594281376E-02   3.834563778885078E-02
   4.003482669772940E-02   4.179105465733386E-02   4.361643033575702E-02
   4.551308582061732E-02   4.748317297536218E-02   4.952885938839260E-02
   5.165232389019350E-02   5.385575161308534E-02   5.614132856773178E-02
   5.851123571015499E-02   6.096764247275843E-02   6.351269973273452E-02
   6.614853219127971E-02   6.887723013726393E-02   7.170084056942781E-02
   7.462135765184891E-02   7.764071247832638E-02   8.076076212254689E-02
   8.398327795240831E-02   8.730993318874740E-02   9.074228969097012E-02
   9.428178395474397E-02   9.792971231003264E-02   1.016872153113572E-01
   1.055552613162994E-01   1.095346292529652E-01   1.136258905824200E-01
   1.178293904680528E-01   1.221452281704467E-01   1.265732366936615E-01
   1.311129617169237E-01   1.357636398545745E-01   1.405241762967925E-01
   1.453931218941091E-01   1.503686497600653E-01   1.554485314785677E-01
   1.606301130155446E-01   1.659102904484121E-01   1.712854856415953E-01
   1.767516220118708E-01   1.823041005436092E-01   1.879377762309321E-01
   1.936469351414148E-01   1.994252723140469E-01   2.052658707226173E-01
   2.111611815544361E-01   2.171030060730313E-01   2.230824793521123E-01
   2.290900561863339E-01   2.351154995019715E-01   2.411478716073196E-01
   2.471755286379606E-01   2.531861185658079E-01   2.591665831525072E-01
   2.651031642369242E-01   2.709814147527004E-01   2.767862148745330E-01
   2.825017936905648E-01   2.881117567923800E-01   2.935991201630126E-01
   2.989463507265828E-01   3.041354138999138E-01   3.091478284563141E-01
   3.139647289739265E-01   3.185669360951277E-01   3.229350347689391E-01
   3.270494605847202E-01   3.308905942323082E-01   3.344388640408796E-01
   3.376748564560012E-01   3.405794342116830E-01   3.431338618417822E-01
   3.453199380533383E-01   3.471201343538483E-01   3.485177391859728E-01
   3.494970066778645E-01   3.500433089665380E-01   3.501432908972680E-01
   3.497850257458480E-01   3.489581704550809E-01   3.476541187247196E-01
   3.458661501482311E-01   3.435895734534135E-01   3.408218617805348E-01
   3.375627778248995E-01   3.338144865842526E-01   3.295816533889596E-01
   3.248715248579349E-01   3.196939904191595E-01   3.140616220632040E-01
   3.079896900636178E-01   3.014961525009155E-01   2.946016165675167E-01
   2.873292698086534E-01   2.797047796667927E-01   2.717561599406391E-01
   2.635136030389079E-01   2.550092771962836E-01   2.462770881151216E-01
   2.373524047904977E-01   2.282717495553050E-01   2.190724526324963E-01
   2.097922716882316E-01   2.004689770279205E-01   1.911399031529121E-01
   1.818414673868106E-01   1.726086561788717E-01   1.634744794942969E-01
   1.544693934117570E-01   1.456206906808099E-01   1.369518585715053E-01
   1.284819029157377E-01   1.202246368516996E-01   1.121879325156992E-01
   1.043729338773540E-01   9.677322920487572E-02   8.938113883722276E-02
   8.221120876251620E-02   7.528328377581539E-02   6.861587299487526E-02
   6.222598051975003E-02   5.612894204115959E-02   5.033826966849131E-02
   4.486550734149031E-02   3.972009925678144E-02   3.490927377746411E-02
   3.043794529736654E-02   2.630863649781701E-02   2.252142336096563E-02
   1.907390518764918E-02   1.596120170798232E-02   1.317597916882840E-02
   1.070850703463988E-02   8.546746649084391E-03   6.676472873941242E-03
   5.081425953778029E-03   3.743491048687653E-03   2.642928165669245E-03
   1.758645572236373E-03   1.068471902905155E-03   5.494817528834961E-04
   1.783422205652307E-04  -6.831216637737114E-05  -2.134806551978841E-04
  -2.793763220002576E-04  -2.869882361687948E-04  -2.556292730924170E-04
  -2.024733910663823E-04  -1.420864774861474E-04  -8.595519674997609E-05
  -4.201867446640417E-05  -1.420837541754594E-05  -2.002230282016626E-06
   0.000000000000000E+00   0.000000000000000E+00   0.000000000000000E+00
   0.000000000000000E+00   0.000000000000000E+00   0.000000000000000E+00
   0.000000000000000E+00   0.000000000000000E+00   0.000000000000000E+00
   0.000000000000000E+00   0.000000000000000E+00   0.000000000000000E+00
   0.000000000000000E+00   0.000000000000000E+00   0.000000000000000E+00
   0.000000000000000E+00   0.000000000000000E+00   0.000000000000000E+00
   0.000000000000000E+00   0.000000000000000E+00   0.000000000000000E+00
   0.000000000000000E+00   0.000000000000000E+00   0.000000000000000E+00
   0.000000000000000E+00   0.000000000000000E+00   0.000000000000000E+00
   0.000000000000000E+00   0.000000000000000E+00   0.000000000000000E+00
   0.000000000000000E+00   0.000000000000000E+00   0.000000000000000E+00
   0.000000000000000E+00   0.000000000000000E+00   0.000000000000000E+00
   0.000000000000000E+00   0.000000000000000E+00   0.000000000000000E+00
   0.000000000000000E+00   0.000000000000000E+00   0.000000000000000E+00
   0.000000000000000E+00   0.000000000000000E+00   0.000000000000000E+00
   0.000000000000000E+00   0.000000000000000E+00   0.000000000000000E+00
   0.000000000000000E+00   0.000000000000000E+00   0.000000000000000E+00
   0.000000000000000E+00   0.000000000000000E+00   0.000000000000000E+00
   0.000000000000000E+00   0.000000000000000E+00   0.000000000000000E+00
   0.000000000000000E+00   0.000000000000000E+00   0.000000000000000E+00
   0.000000000000000E+00   0.000000000000000E+00   0.000000000000000E+00
   0.000000000000000E+00   0.000000000000000E+00   0.000000000000000E+00
   0.000000000000000E+00   0.000000000000000E+00   0.000000000000000E+00
   0.000000000000000E+00   0.000000000000000E+00   0.000000000000000E+00
   0.000000000000000E+00   0.000000000000000E+00   0.000000000000000E+00
   0.000000000000000E+00   0.000000000000000E+00   0.000000000000000E+00
   0.000000000000000E+00   0.000000000000000E+00   0.000000000000000E+00
   0.000000000000000E+00   0.000000000000000E+00   0.000000000000000E+00
   0.000000000000000E+00   0.000000000000000E+00   0.000000000000000E+00
   0.000000000000000E+00   0.000000000000000E+00   0.000000000000000E+00
   0.000000000000000E+00   0.000000000000000E+00   0.000000000000000E+00
   0.000000000000000E+00   0.000000000000000E+00   0.000000000000000E+00
   0.000000000000000E+00   0.000000000000000E+00   0.000000000000000E+00
   0.000000000000000E+00   0.000000000000000E+00   0.000000000000000E+00
   0.000000000000000E+00   0.000000000000000E+00   0.000000000000000E+00
   0.000000000000000E+00   0.000000000000000E+00   0.000000000000000E+00
   0.000000000000000E+00   0.000000000000000E+00   0.000000000000000E+00
   0.000000000000000E+00   0.000000000000000E+00   0.000000000000000E+00
   0.000000000000000E+00   0.000000000000000E+00   0.000000000000000E+00
   0.000000000000000E+00   0.000000000000000E+00   0.000000000000000E+00
   0.000000000000000E+00   0.000000000000000E+00   0.000000000000000E+00
   0.000000000000000E+00   0.000000000000000E+00   0.000000000000000E+00
   0.000000000000000E+00   0.000000000000000E+00   0.000000000000000E+00
   0.000000000000000E+00   0.000000000000000E+00   0.000000000000000E+00
   0.000000000000000E+00   0.000000000000000E+00   0.000000000000000E+00
   0.000000000000000E+00   0.000000000000000E+00   0.000000000000000E+00
   0.000000000000000E+00   0.000000000000000E+00   0.000000000000000E+00
   0.000000000000000E+00   0.000000000000000E+00   0.000000000000000E+00
   0.000000000000000E+00   0.000000000000000E+00   0.000000000000000E+00
   0.000000000000000E+00   0.000000000000000E+00   0.000000000000000E+00
   0.000000000000000E+00   0.000000000000000E+00   0.000000000000000E+00
   0.000000000000000E+00   0.000000000000000E+00   0.000000000000000E+00
   0.000000000000000E+00   0.000000000000000E+00   0.000000000000000E+00
   0.000000000000000E+00   0.000000000000000E+00   0.000000000000000E+00
   0.000000000000000E+00   0.000000000000000E+00   0.000000000000000E+00
   0.000000000000000E+00   0.000000000000000E+00   0.000000000000000E+00
   0.000000000000000E+00   0.000000000000000E+00   0.000000000000000E+00
   0.000000000000000E+00   0.000000000000000E+00   0.000000000000000E+00
   0.000000000000000E+00   0.000000000000000E+00   0.000000000000000E+00
   0.000000000000000E+00   0.000000000000000E+00   0.000000000000000E+00
   0.000000000000000E+00   0.000000000000000E+00   0.000000000000000E+00
   0.000000000000000E+00   0.000000000000000E+00   0.000000000000000E+00
   0.000000000000000E+00   0.000000000000000E+00   0.000000000000000E+00
   0.000000000000000E+00   0.000000000000000E+00   0.000000000000000E+00
   0.000000000000000E+00   0.000000000000000E+00   0.000000000000000E+00
   0.000000000000000E+00   0.000000000000000E+00   0.000000000000000E+00
   0.000000000000000E+00   0.000000000000000E+00   0.000000000000000E+00
   0.000000000000000E+00   0.000000000000000E+00   0.000000000000000E+00
   0.000000000000000E+00   0.000000000000000E+00   0.000000000000000E+00
   0.000000000000000E+00   0.000000000000000E+00   0.000000000000000E+00
   0.000000000000000E+00   0.000000000000000E+00   0.000000000000000E+00
   0.000000000000000E+00   0.000000000000000E+00   0.000000000000000E+00
   0.000000000000000E+00   0.000000000000000E+00   0.000000000000000E+00
   0.000000000000000E+00   0.000000000000000E+00   0.000000000000000E+00
   0.000000000000000E+00   0.000000000000000E+00   0.000000000000000E+00
   0.000000000000000E+00   0.000000000000000E+00   0.000000000000000E+00
   0.000000000000000E+00   0.000000000000000E+00   0.000000000000000E+00
   0.000000000000000E+00   0.000000000000000E+00   0.000000000000000E+00
   0.000000000000000E+00   0.000000000000000E+00   0.000000000000000E+00
   0.000000000000000E+00   0.000000000000000E+00   0.000000000000000E+00
   0.000000000000000E+00   0.000000000000000E+00   0.000000000000000E+00
   0.000000000000000E+00   0.000000000000000E+00   0.000000000000000E+00
   0.000000000000000E+00   0.000000000000000E+00   0.000000000000000E+00
   0.000000000000000E+00   0.000000000000000E+00   0.000000000000000E+00
   0.000000000000000E+00   0.000000000000000E+00   0.000000000000000E+00
   0.000000000000000E+00   0.000000000000000E+00   0.000000000000000E+00
   0.000000000000000E+00   0.000000000000000E+00   0.000000000000000E+00
   0.000000000000000E+00   0.000000000000000E+00   0.000000000000000E+00
   0.000000000000000E+00   0.000000000000000E+00   0.000000000000000E+00
   0.000000000000000E+00   0.000000000000000E+00   0.000000000000000E+00
   0.000000000000000E+00   0.000000000000000E+00   0.000000000000000E+00
   0.000000000000000E+00   0.000000000000000E+00   0.000000000000000E+00
   0.000000000000000E+00   0.000000000000000E+00   0.000000000000000E+00
   0.000000000000000E+00   0.000000000000000E+00   0.000000000000000E+00
   0.000000000000000E+00   0.000000000000000E+00   0.000000000000000E+00
   0.000000000000000E+00   0.000000000000000E+00   0.000000000000000E+00
   0.000000000000000E+00   0.000000000000000E+00   0.000000000000000E+00
   0.000000000000000E+00   0.000000000000000E+00   0.000000000000000E+00
   0.000000000000000E+00   0.000000000000000E+00   0.000000000000000E+00
   0.000000000000000E+00   0.000000000000000E+00   0.000000000000000E+00
   0.000000000000000E+00   0.000000000000000E+00   0.000000000000000E+00
   0.000000000000000E+00   0.000000000000000E+00   0.000000000000000E+00
   0.000000000000000E+00   0.000000000000000E+00   0.000000000000000E+00
   0.000000000000000E+00   0.000000000000000E+00   0.000000000000000E+00
   0.000000000000000E+00   0.000000000000000E+00   0.000000000000000E+00
   0.000000000000000E+00   0.000000000000000E+00   0.000000000000000E+00
   0.000000000000000E+00   0.000000000000000E+00   0.000000000000000E+00
   0.000000000000000E+00   0.000000000000000E+00   0.000000000000000E+00
   0.000000000000000E+00   0.000000000000000E+00   0.000000000000000E+00
   0.000000000000000E+00   0.000000000000000E+00   0.000000000000000E+00
   0.000000000000000E+00   0.000000000000000E+00   0.000000000000000E+00
   0.000000000000000E+00   0.000000000000000E+00   0.000000000000000E+00
   0.000000000000000E+00   0.000000000000000E+00   0.000000000000000E+00
      </PP_QIJL.3.3.2>
      <PP_QIJL.3.4.0 first_index="3" second_index="4" composite_index="9" angular_momentum="0" size="1095">
   1.911556629074218E-08   1.959947915452560E-08   2.009564233074009E-08
   2.060436593751926E-08   2.112596794367467E-08   2.166077436743646E-08
   2.220911948022544E-08   2.277134601558368E-08   2.334780538339393E-08
   2.393885788952253E-08   2.454487296102195E-08   2.516622937703493E-08
   2.580331550554373E-08   2.645652954611261E-08   2.712627977877585E-08
   2.781298481922565E-08   2.851707388046076E-08   2.923898704105853E-08
   2.997917552023829E-08   3.073810195988825E-08   3.151624071373135E-08
   3.231407814381203E-08   3.313211292448825E-08   3.397085635411916E-08
   3.483083267464333E-08   3.571257939924675E-08   3.661664764832624E-08
   3.754360249395762E-08   3.849402331308390E-08   3.946850414964515E-08
   4.046765408587481E-08   4.149209762299611E-08   4.254247507155558E-08
   4.361944295163797E-08   4.472367440321280E-08   4.585585960686838E-08
   4.701670621519732E-08   4.820693979510241E-08   4.942730428129939E-08
   5.067856244130064E-08   5.196149635216915E-08   5.327690788934252E-08
   5.462561922783092E-08   5.600847335610329E-08   5.742633460298270E-08
   5.888008917787951E-08   6.037064572470135E-08   6.189893588978508E-08
   6.346591490420567E-08   6.507256218082743E-08   6.671988192646791E-08
   6.840890376956033E-08   7.014068340370467E-08   7.191630324751030E-08
   7.373687312114338E-08   7.560353093999948E-08   7.751744342593839E-08
   7.947980683652299E-08   8.149184771271884E-08   8.355482364552263E-08
   8.567002406199673E-08   8.783877103120322E-08   9.006242009054014E-08
   9.234236109299583E-08   9.468001907585310E-08   9.707685515138265E-08
   9.953436742008629E-08   1.020540919070583E-07   1.046376035220504E-07
   1.072865170438427E-07   1.100024881295311E-07   1.127872143493681E-07
   1.156424362477984E-07   1.185699384313557E-07   1.215715506841004E-07
   1.246491491112930E-07   1.278046573120206E-07   1.310400475815099E-07
   1.343573421438741E-07   1.377586144160700E-07   1.412459903038493E-07
   1.448216495305195E-07   1.484878269993412E-07   1.522468141904149E-07
   1.561009605929312E-07   1.600526751736759E-07   1.641044278827137E-07
   1.682587511971862E-07   1.725182417041920E-07   1.768855617237388E-07
   1.813634409727777E-07   1.859546782713656E-07   1.906621432920185E-07
   1.954887783533486E-07   2.004376002591102E-07   2.055117021837978E-07
   2.107142556059810E-07   2.160485122905809E-07   2.215178063213278E-07
   2.271255561846731E-07   2.328752669064507E-07   2.387705322426337E-07
   2.448150369255466E-07   2.510125589669422E-07   2.573669720193822E-07
   2.638822477973925E-07   2.705624585599146E-07   2.774117796555980E-07
   2.844344921325278E-07   2.916349854140191E-07   2.990177600421454E-07
   3.065874304907243E-07   3.143487280495108E-07   3.223065037814070E-07
   3.304657315545328E-07   3.388315111510516E-07   3.474090714546993E-07
   3.562037737190051E-07   3.652211149182461E-07   3.744667311832351E-07
   3.839464013240807E-07   3.936660504421305E-07   4.036317536333493E-07
   4.138497397854490E-07   4.243263954711453E-07   4.350682689399662E-07
   4.460820742111207E-07   4.573746952699755E-07   4.689531903707656E-07
   4.808247964482316E-07   4.929969336409312E-07   5.054772099290661E-07
   5.182734258897126E-07   5.313935795724294E-07   5.448458714982989E-07
   5.586387097855093E-07   5.727807154046983E-07   5.872807275673363E-07
   6.021478092505130E-07   6.173912528615913E-07   6.330205860462505E-07
   6.490455776435743E-07   6.654762437918827E-07   6.823228541891369E-07
   6.995959385118306E-07   7.173062929963659E-07   7.354649871870475E-07
   7.540833708548977E-07   7.731730810916220E-07   7.927460495831642E-07
   8.128145100673817E-07   8.333910059805207E-07   8.544883982972605E-07
   8.761198735692277E-07   8.982989521670113E-07   9.210394967308125E-07
   9.443557208350361E-07   9.682621978722221E-07   9.927738701618711E-07
   1.017906058289869E-06   1.043674470684326E-06   1.070095213433842E-06
   1.097184800354316E-06   1.124960163310590E-06   1.153438662799413E-06
   1.182638098800264E-06   1.212576721900925E-06   1.243273244704646E-06
   1.274746853526107E-06   1.307017220383478E-06   1.340104515294009E-06
   1.374029418880951E-06   1.408813135299561E-06   1.444477405490362E-06
   1.481044520767916E-06   1.518537336753549E-06   1.556979287660860E-06
   1.596394400942792E-06   1.636807312309545E-06   1.678243281126650E-06
   1.720728206202826E-06   1.764288641977563E-06   1.808951815118419E-06
   1.854745641538538E-06   1.901698743844951E-06   1.949840469228540E-06
   1.999200907806965E-06   2.049810911431869E-06   2.101702112972218E-06
   2.154906946085819E-06   2.209458665491290E-06   2.265391367753308E-06
   2.322740012593936E-06   2.381540444743516E-06   2.441829416344706E-06
   2.503644609923617E-06   2.567024661942566E-06   2.632009186948962E-06
   2.698638802335585E-06   2.766955153727672E-06   2.837000941012594E-06
   2.908819945028616E-06   2.982457054929133E-06   3.057958296239723E-06
   3.135370859625455E-06   3.214743130386363E-06   3.296124718699721E-06
   3.379566490627778E-06   3.465120599910523E-06   3.552840520563281E-06
   3.642781080299432E-06   3.734998494799363E-06   3.829550402846797E-06
   3.926495902354670E-06   4.025895587303007E-06   4.127811585611785E-06
   4.232307597972692E-06   4.339448937663752E-06   4.449302571371940E-06
   4.561937161049238E-06   4.677423106828131E-06   4.795832591023724E-06
   4.917239623249524E-06   5.041720086675492E-06   5.169351785457075E-06
   5.300214493364774E-06   5.434390003644978E-06   5.571962180142794E-06
   5.713017009719174E-06   5.857642655994967E-06   6.005929514455349E-06
   6.157970268949456E-06   6.313859949620020E-06   6.473695992299649E-06
   6.637578299410726E-06   6.805609302406752E-06   6.977894025794708E-06
   7.154540152777804E-06   7.335658092560139E-06   7.521361049355167E-06
   7.711765093140858E-06   7.906989232206392E-06   8.107155487534942E-06
   8.312388969069687E-06   8.522817953910403E-06   8.738573966489501E-06
   8.959791860777806E-06   9.186609904571212E-06   9.419169865911111E-06
   9.657617101692491E-06   9.902100648515055E-06   1.015277331583427E-05
   1.040979178147043E-05   1.067331668953547E-05   1.094351275083881E-05
   1.122054884583486E-05   1.150459813017659E-05   1.179583814294112E-05
   1.209445091759497E-05   1.240062309576842E-05   1.271454604390981E-05
   1.303641597289300E-05   1.336643406065259E-05   1.370480657792348E-05
   1.405174501716362E-05   1.440746622474005E-05   1.477219253646148E-05
   1.514615191654138E-05   1.552957810007913E-05   1.592271073914785E-05
   1.632579555258017E-05   1.673908447954594E-05   1.716283583701740E-05
   1.759731448122053E-05   1.804279197317344E-05   1.849954674841500E-05
   1.896786429103022E-05   1.944803731208065E-05   1.994036593255170E-05
   2.044515787093109E-05   2.096272863553545E-05   2.149340172170564E-05
   2.203750881399363E-05   2.259538999346765E-05   2.316739395026495E-05
   2.375387820152488E-05   2.435520931483896E-05   2.497176313735695E-05
   2.560392503069257E-05   2.625209011177556E-05   2.691666349980028E-05
   2.759806056942577E-05   2.829670721038481E-05   2.901304009366474E-05
   2.974750694442626E-05   3.050056682183035E-05   3.127269040594892E-05
   3.206436029193770E-05   3.287607129165572E-05   3.370833074291979E-05
   3.456165882658673E-05   3.543658889166245E-05   3.633366778863984E-05
   3.725345621127484E-05   3.819652904701363E-05   3.916347573628991E-05
   4.015490064091723E-05   4.117142342180593E-05   4.221367942624127E-05
   4.328232008496442E-05   4.437801331930436E-05   4.550144395861543E-05
   4.665331416828091E-05   4.783434388855030E-05   4.904527128448473E-05
   5.028685320729077E-05   5.155986566733218E-05   5.286510431911363E-05
   5.420338495854086E-05   5.557554403276684E-05   5.698243916294300E-05
   5.842494968020209E-05   5.990397717520735E-05   6.142044606161135E-05
   6.297530415377665E-05   6.456952325911969E-05   6.620409978544597E-05
   6.788005536365872E-05   6.959843748622821E-05   7.136032016182070E-05
   7.316680458649733E-05   7.501901983189950E-05   7.691812355085398E-05
   7.886530270083593E-05   8.086177428574281E-05   8.290878611644303E-05
   8.500761759057214E-05   8.715958049206710E-05   8.936601981093460E-05
   9.162831458376790E-05   9.394787875553648E-05   9.632616206318465E-05
   9.876465094159520E-05   1.012648694524800E-04   1.038283802367793E-04
   1.064567854911657E-04   1.091517279692586E-04   1.119148920081798E-04
   1.147480045810869E-04   1.176528363763439E-04   1.206312029040029E-04
   1.236849656302853E-04   1.268160331407753E-04   1.300263623330473E-04
   1.333179596394758E-04   1.366928822809883E-04   1.401532395525449E-04
   1.437011941411478E-04   1.473389634772032E-04   1.510688211200778E-04
   1.548930981787183E-04   1.588141847682146E-04   1.628345315032231E-04
   1.669566510291767E-04   1.711831195922394E-04   1.755165786489873E-04
   1.799597365168129E-04   1.845153700660943E-04   1.891863264551750E-04
   1.939755249092417E-04   1.988859585442111E-04   2.039206962367577E-04
   2.090828845416576E-04   2.143757496576374E-04   2.198025994429583E-04
   2.253668254819929E-04   2.310719052040786E-04   2.369214040559776E-04
   2.429189777292903E-04   2.490683744442166E-04   2.553734372910871E-04
   2.618381066311218E-04   2.684664225579193E-04   2.752625274212038E-04
   2.822306684144099E-04   2.893752002277117E-04   2.967005877681572E-04
   3.042114089485925E-04   3.119123575471270E-04   3.198082461389100E-04
   3.279040091020508E-04   3.362047056995566E-04   3.447155232391995E-04
   3.534417803132919E-04   3.623889301203785E-04   3.715625638709195E-04
   3.809684142790825E-04   3.906123591428151E-04   4.005004250144309E-04
   4.106387909639906E-04   4.210337924378198E-04   4.316919252145674E-04
   4.426198494612571E-04   4.538243938918674E-04   4.653125600310138E-04
   4.770915265853935E-04   4.891686539257053E-04   5.015514886818271E-04
   5.142477684541176E-04   5.272654266437558E-04   5.406125974051271E-04
   5.542976207233332E-04   5.683290476199648E-04   5.827156454903875E-04
   5.974664035758358E-04   6.125905385737214E-04   6.280975003896338E-04
   6.439969780345878E-04   6.602989056711932E-04   6.770134688124769E-04
   6.941511106772054E-04   7.117225387056453E-04   7.297387312397823E-04
   7.482109443721505E-04   7.671507189674982E-04   7.865698878616309E-04
   8.064805832418929E-04   8.268952442138249E-04   8.478266245587004E-04
   8.692878006867034E-04   8.912921797906679E-04   9.138535082054121E-04
   9.369858799777954E-04   9.607037456528124E-04   9.850219212811048E-04
   1.009955597653445E-03   1.035520349767881E-03   1.061732146535325E-03
   1.088607360729593E-03   1.116162779187965E-03   1.144415613268542E-03
   1.173383509570794E-03   1.203084560925870E-03   1.233537317663391E-03
   1.264760799161623E-03   1.296774505688054E-03   1.329598430537647E-03
   1.363253072476102E-03   1.397759448495768E-03   1.433139106891915E-03
   1.469414140667336E-03   1.506607201273405E-03   1.544741512695894E-03
   1.583840885894115E-03   1.623929733602087E-03   1.665033085500654E-03
   1.707176603769726E-03   1.750386599029944E-03   1.794690046683409E-03
   1.840114603663232E-03   1.886688625601921E-03   1.934441184428908E-03
   1.983402086407629E-03   2.033601890622969E-03   2.085071927929988E-03
   2.137844320375172E-03   2.191952001101688E-03   2.247428734750330E-03
   2.304309138368215E-03   2.362628702837424E-03   2.422423814836129E-03
   2.483731779345019E-03   2.546590842712035E-03   2.611040216288832E-03
   2.677120100652556E-03   2.744871710426838E-03   2.814337299716269E-03
   2.885560188168741E-03   2.958584787680554E-03   3.033456629759304E-03
   3.110222393559923E-03   3.188929934609612E-03   3.269628314237523E-03
   3.352367829725605E-03   3.437200045197070E-03   3.524177823259412E-03
   3.613355357419159E-03   3.704788205285735E-03   3.798533322582304E-03
   3.894649097981582E-03   3.993195388784931E-03   4.094233557463446E-03
   4.197826509079753E-03   4.304038729609849E-03   4.412936325184296E-03
   4.524587062268438E-03   4.639060408801588E-03   4.756427576315188E-03
   4.876761563050421E-03   5.000137198095681E-03   5.126631186564630E-03
   5.256322155835724E-03   5.389290702874066E-03   5.525619442656818E-03
   5.665393057723215E-03   5.808698348870398E-03   5.955624287016358E-03
   6.106262066250959E-03   6.260705158096408E-03   6.419049366997975E-03
   6.581392887065860E-03   6.747836360088810E-03   6.918482934839737E-03
   7.093438327693436E-03   7.272810884575867E-03   7.456711644264048E-03
   7.645254403055212E-03   7.838555780822751E-03   8.036735288476291E-03
   8.239915396841923E-03   8.448221606977769E-03   8.661782521939068E-03
   8.880729920005376E-03   9.105198829381572E-03   9.335327604382345E-03
   9.571258003108339E-03   9.813135266620263E-03   1.006110819961490E-02
   1.031532925260500E-02   1.057595460560219E-02   1.084314425329928E-02
   1.111706209174552E-02   1.139787600650448E-02   1.168575796228121E-02
   1.198088409400084E-02   1.228343479931657E-02   1.259359483252047E-02
   1.291155339982477E-02   1.323750425597674E-02   1.357164580216293E-02
   1.391418118515312E-02   1.426531839762660E-02   1.462527037961546E-02
   1.499425512099234E-02   1.537249576491975E-02   1.576022071216934E-02
   1.615766372620883E-02   1.656506403894258E-02   1.698266645698046E-02
   1.741072146829606E-02   1.784948534912120E-02   1.829922027090924E-02
   1.876019440718250E-02   1.923268204006272E-02   1.971696366626411E-02
   2.021332610230876E-02   2.072206258870292E-02   2.124347289278894E-02
   2.177786340996420E-02   2.232554726293101E-02   2.288684439861359E-02
   2.346208168234864E-02   2.405159298892270E-02   2.465571928999661E-02
   2.527480873741964E-02   2.590921674189694E-02   2.655930604643325E-02
   2.722544679392950E-02   2.790801658826433E-02   2.860740054813977E-02
   2.932399135291865E-02   3.005818927962380E-02   3.081040223020858E-02
   3.158104574814542E-02   3.237054302330979E-02   3.317932488406632E-02
   3.400782977538735E-02   3.485650372175264E-02   3.572580027349635E-02
   3.661618043517473E-02   3.752811257443476E-02   3.846207230976388E-02
   3.941854237539428E-02   4.039801246152648E-02   4.140097902791826E-02
   4.242794508876390E-02   4.347941996666022E-02   4.455591901331999E-02
   4.565796329455526E-02   4.678607923690345E-02   4.794079823311743E-02
   4.912265620358033E-02   5.033219311053930E-02   5.156995242188178E-02
   5.283648052099697E-02   5.413232605908168E-02   5.545803924605993E-02
   5.681417107608688E-02   5.820127248341082E-02   5.961989342415668E-02
   6.107058187938745E-02   6.255388277458582E-02   6.407033681048122E-02
   6.562047919993202E-02   6.720483830535309E-02   6.882393417096153E-02
   7.047827694390003E-02   7.216836517808314E-02   7.389468401441132E-02
   7.565770323079554E-02   7.745787515525243E-02   7.929563243515558E-02
   8.117138565556992E-02   8.308552079946367E-02   8.503839654247371E-02
   8.703034137481845E-02   8.906165054289811E-02   9.113258280310506E-02
   9.324335698039918E-02   9.539414832427534E-02   9.758508465488723E-02
   9.981624229228746E-02   1.020876417620105E-01   1.043992432705770E-01
   1.067509419449323E-01   1.091425628303692E-01   1.115738556421354E-01
   1.140444892666869E-01   1.165540460094601E-01   1.191020155870744E-01
   1.216877888630938E-01   1.243106513278534E-01   1.269697763244326E-01
   1.296642180246378E-01   1.323929041608551E-01   1.351546285218746E-01
   1.379480432232893E-01   1.407716507658319E-01   1.436237958980912E-01
   1.465026573034069E-01   1.494062391344540E-01   1.523323624230684E-01
   1.552786563972662E-01   1.582425497422077E-01   1.612212618470062E-01
   1.642117940848736E-01   1.672109211800747E-01   1.702151827215493E-01
   1.732208748899036E-01   1.762240424716816E-01   1.792204712424887E-01
   1.822056808085736E-01   1.851749180048705E-01   1.881231509562825E-01
   1.910450639180153E-01   1.939350530200979E-01   1.967872230507224E-01
   1.995953854226328E-01   2.023530574764489E-01   2.050534632843267E-01
   2.076895361267007E-01   2.102539228238075E-01   2.127389901120978E-01
   2.151368332633428E-01   2.174392871509529E-01   2.196379399735461E-01
   2.217241498498347E-01   2.236890645011076E-01   2.255236442376821E-01
   2.272186884632333E-01   2.287648659055415E-01   2.301527487734318E-01
   2.313728510270490E-01   2.324156709316373E-01   2.332717380430709E-01
   2.339316647460254E-01   2.343862024322282E-01   2.346263023661271E-01
   2.346431812379449E-01   2.344283913488274E-01   2.339738953090717E-01
   2.332721450576629E-01   2.323161649290394E-01   2.310996384006999E-01
   2.296169980525982E-01   2.278635181559953E-01   2.258354091854458E-01
   2.235299134129897E-01   2.209454005986436E-01   2.180814626365460E-01
   2.149390058524058E-01   2.115203394764524E-01   2.078292586384921E-01
   2.038711200499444E-01   1.996529083544692E-01   1.951832909470494E-01
   1.904726588849200E-01   1.855331513469280E-01   1.803786609457868E-01
   1.750248170662081E-01   1.694889442975424E-01   1.637899929598158E-01
   1.579484386951174E-01   1.519861481210043E-01   1.459262076287826E-01
   1.397927125673038E-01   1.336105142931784E-01   1.274049229021680E-01
   1.212013638951256E-01   1.150249875864373E-01   1.089002307439371E-01
   1.028503307665034E-01   9.689679366734641E-02   9.105881824365973E-02
   8.535268008086772E-02   7.979108046257492E-02   7.438246683219450E-02
   6.913033317076964E-02   6.403251050353546E-02   5.908502927749981E-02
   5.429734292980304E-02   4.968205797504299E-02   4.525077581623532E-02
   4.101398448332738E-02   3.698095627987419E-02   3.315965294691847E-02
   2.955663999051789E-02   2.617701183412341E-02   2.302432944622196E-02
   2.010057205447374E-02   1.740610448755242E-02   1.493966158284671E-02
   1.269835096044059E-02   1.067767529034541E-02   8.871574970326757E-03
   7.272491886372356E-03   5.871454648329000E-03   4.658185379283197E-03
   3.621225979459297E-03   2.748081832746274E-03   2.025394184016427E-03
   1.439136011083308E-03   9.748064604108708E-04   6.176516145081634E-04
   3.528925619831758E-04   1.659628945748226E-04   4.275120801472410E-05
  -3.015503763367788E-05  -6.522839614556131E-05  -7.376745055800993E-05
  -6.567464898377118E-05  -4.925091204360799E-05  -3.101222278517612E-05
  -1.553367219850332E-05  -5.326712193193250E-06  -7.556780970974231E-07
   0.000000000000000E+00   0.000000000000000E+00   0.000000000000000E+00
   0.000000000000000E+00   0.000000000000000E+00   0.000000000000000E+00
   0.000000000000000E+00   0.000000000000000E+00   0.000000000000000E+00
   0.000000000000000E+00   0.000000000000000E+00   0.000000000000000E+00
   0.000000000000000E+00   0.000000000000000E+00   0.000000000000000E+00
   0.000000000000000E+00   0.000000000000000E+00   0.000000000000000E+00
   0.000000000000000E+00   0.000000000000000E+00   0.000000000000000E+00
   0.000000000000000E+00   0.000000000000000E+00   0.000000000000000E+00
   0.000000000000000E+00   0.000000000000000E+00   0.000000000000000E+00
   0.000000000000000E+00   0.000000000000000E+00   0.000000000000000E+00
   0.000000000000000E+00   0.000000000000000E+00   0.000000000000000E+00
   0.000000000000000E+00   0.000000000000000E+00   0.000000000000000E+00
   0.000000000000000E+00   0.000000000000000E+00   0.000000000000000E+00
   0.000000000000000E+00   0.000000000000000E+00   0.000000000000000E+00
   0.000000000000000E+00   0.000000000000000E+00   0.000000000000000E+00
   0.000000000000000E+00   0.000000000000000E+00   0.000000000000000E+00
   0.000000000000000E+00   0.000000000000000E+00   0.000000000000000E+00
   0.000000000000000E+00   0.000000000000000E+00   0.000000000000000E+00
   0.000000000000000E+00   0.000000000000000E+00   0.000000000000000E+00
   0.000000000000000E+00   0.000000000000000E+00   0.000000000000000E+00
   0.000000000000000E+00   0.000000000000000E+00   0.000000000000000E+00
   0.000000000000000E+00   0.000000000000000E+00   0.000000000000000E+00
   0.000000000000000E+00   0.000000000000000E+00   0.000000000000000E+00
   0.000000000000000E+00   0.000000000000000E+00   0.000000000000000E+00
   0.000000000000000E+00   0.000000000000000E+00   0.000000000000000E+00
   0.000000000000000E+00   0.000000000000000E+00   0.000000000000000E+00
   0.000000000000000E+00   0.000000000000000E+00   0.000000000000000E+00
   0.000000000000000E+00   0.000000000000000E+00   0.000000000000000E+00
   0.000000000000000E+00   0.000000000000000E+00   0.000000000000000E+00
   0.000000000000000E+00   0.000000000000000E+00   0.000000000000000E+00
   0.000000000000000E+00   0.000000000000000E+00   0.000000000000000E+00
   0.000000000000000E+00   0.000000000000000E+00   0.000000000000000E+00
   0.000000000000000E+00   0.000000000000000E+00   0.000000000000000E+00
   0.000000000000000E+00   0.000000000000000E+00   0.000000000000000E+00
   0.000000000000000E+00   0.000000000000000E+00   0.000000000000000E+00
   0.000000000000000E+00   0.000000000000000E+00   0.000000000000000E+00
   0.000000000000000E+00   0.000000000000000E+00   0.000000000000000E+00
   0.000000000000000E+00   0.000000000000000E+00   0.000000000000000E+00
   0.000000000000000E+00   0.000000000000000E+00   0.000000000000000E+00
   0.000000000000000E+00   0.000000000000000E+00   0.000000000000000E+00
   0.000000000000000E+00   0.000000000000000E+00   0.000000000000000E+00
   0.000000000000000E+00   0.000000000000000E+00   0.000000000000000E+00
   0.000000000000000E+00   0.000000000000000E+00   0.000000000000000E+00
   0.000000000000000E+00   0.000000000000000E+00   0.000000000000000E+00
   0.000000000000000E+00   0.000000000000000E+00   0.000000000000000E+00
   0.000000000000000E+00   0.000000000000000E+00   0.000000000000000E+00
   0.000000000000000E+00   0.000000000000000E+00   0.000000000000000E+00
   0.000000000000000E+00   0.000000000000000E+00   0.000000000000000E+00
   0.000000000000000E+00   0.000000000000000E+00   0.000000000000000E+00
   0.000000000000000E+00   0.000000000000000E+00   0.000000000000000E+00
   0.000000000000000E+00   0.000000000000000E+00   0.000000000000000E+00
   0.000000000000000E+00   0.000000000000000E+00   0.000000000000000E+00
   0.000000000000000E+00   0.000000000000000E+00   0.000000000000000E+00
   0.000000000000000E+00   0.000000000000000E+00   0.000000000000000E+00
   0.000000000000000E+00   0.000000000000000E+00   0.000000000000000E+00
   0.000000000000000E+00   0.000000000000000E+00   0.000000000000000E+00
   0.000000000000000E+00   0.000000000000000E+00   0.000000000000000E+00
   0.000000000000000E+00   0.000000000000000E+00   0.000000000000000E+00
   0.000000000000000E+00   0.000000000000000E+00   0.000000000000000E+00
   0.000000000000000E+00   0.000000000000000E+00   0.000000000000000E+00
   0.000000000000000E+00   0.000000000000000E+00   0.000000000000000E+00
   0.000000000000000E+00   0.000000000000000E+00   0.000000000000000E+00
   0.000000000000000E+00   0.000000000000000E+00   0.000000000000000E+00
   0.000000000000000E+00   0.000000000000000E+00   0.000000000000000E+00
   0.000000000000000E+00   0.000000000000000E+00   0.000000000000000E+00
   0.000000000000000E+00   0.000000000000000E+00   0.000000000000000E+00
   0.000000000000000E+00   0.000000000000000E+00   0.000000000000000E+00
   0.000000000000000E+00   0.000000000000000E+00   0.000000000000000E+00
   0.000000000000000E+00   0.000000000000000E+00   0.000000000000000E+00
   0.000000000000000E+00   0.000000000000000E+00   0.000000000000000E+00
   0.000000000000000E+00   0.000000000000000E+00   0.000000000000000E+00
   0.000000000000000E+00   0.000000000000000E+00   0.000000000000000E+00
   0.000000000000000E+00   0.000000000000000E+00   0.000000000000000E+00
   0.000000000000000E+00   0.000000000000000E+00   0.000000000000000E+00
   0.000000000000000E+00   0.000000000000000E+00   0.000000000000000E+00
   0.000000000000000E+00   0.000000000000000E+00   0.000000000000000E+00
   0.000000000000000E+00   0.000000000000000E+00   0.000000000000000E+00
   0.000000000000000E+00   0.000000000000000E+00   0.000000000000000E+00
   0.000000000000000E+00   0.000000000000000E+00   0.000000000000000E+00
   0.000000000000000E+00   0.000000000000000E+00   0.000000000000000E+00
   0.000000000000000E+00   0.000000000000000E+00   0.000000000000000E+00
   0.000000000000000E+00   0.000000000000000E+00   0.000000000000000E+00
   0.000000000000000E+00   0.000000000000000E+00   0.000000000000000E+00
   0.000000000000000E+00   0.000000000000000E+00   0.000000000000000E+00
   0.000000000000000E+00   0.000000000000000E+00   0.000000000000000E+00
   0.000000000000000E+00   0.000000000000000E+00   0.000000000000000E+00
   0.000000000000000E+00   0.000000000000000E+00   0.000000000000000E+00
   0.000000000000000E+00   0.000000000000000E+00   0.000000000000000E+00
   0.000000000000000E+00   0.000000000000000E+00   0.000000000000000E+00
   0.000000000000000E+00   0.000000000000000E+00   0.000000000000000E+00
   0.000000000000000E+00   0.000000000000000E+00   0.000000000000000E+00
   0.000000000000000E+00   0.000000000000000E+00   0.000000000000000E+00
   0.000000000000000E+00   0.000000000000000E+00   0.000000000000000E+00
   0.000000000000000E+00   0.000000000000000E+00   0.000000000000000E+00
   0.000000000000000E+00   0.000000000000000E+00   0.000000000000000E+00
   0.000000000000000E+00   0.000000000000000E+00   0.000000000000000E+00
   0.000000000000000E+00   0.000000000000000E+00   0.000000000000000E+00
   0.000000000000000E+00   0.000000000000000E+00   0.000000000000000E+00
   0.000000000000000E+00   0.000000000000000E+00   0.000000000000000E+00
   0.000000000000000E+00   0.000000000000000E+00   0.000000000000000E+00
   0.000000000000000E+00   0.000000000000000E+00   0.000000000000000E+00
   0.000000000000000E+00   0.000000000000000E+00   0.000000000000000E+00
   0.000000000000000E+00   0.000000000000000E+00   0.000000000000000E+00
   0.000000000000000E+00   0.000000000000000E+00   0.000000000000000E+00
   0.000000000000000E+00   0.000000000000000E+00   0.000000000000000E+00
   0.000000000000000E+00   0.000000000000000E+00   0.000000000000000E+00
   0.000000000000000E+00   0.000000000000000E+00   0.000000000000000E+00
   0.000000000000000E+00   0.000000000000000E+00   0.000000000000000E+00
   0.000000000000000E+00   0.000000000000000E+00   0.000000000000000E+00
   0.000000000000000E+00   0.000000000000000E+00   0.000000000000000E+00
   0.000000000000000E+00   0.000000000000000E+00   0.000000000000000E+00
   0.000000000000000E+00   0.000000000000000E+00   0.000000000000000E+00
   0.000000000000000E+00   0.000000000000000E+00   0.000000000000000E+00
      </PP_QIJL.3.4.0>
      <PP_QIJL.3.4.2 first_index="3" second_index="4" composite_index="9" angular_momentum="2" size="1095">
   2.987658260572937E-15   3.140838768897345E-15   3.301873009336932E-15
   3.471163651309708E-15   3.649134009533280E-15   3.836229102531708E-15
   4.032916765413240E-15   4.239688819701328E-15   4.457062303144116E-15
   4.685580762577695E-15   4.925815613075666E-15   5.178367566783923E-15
   5.443868135013269E-15   5.722981207345930E-15   6.016404711704659E-15
   6.324872359535148E-15   6.649155480466044E-15   6.990064951033845E-15
   7.348453222295572E-15   7.725216451399471E-15   8.121296742443365E-15
   8.537684502224456E-15   8.975420916770813E-15   9.435600554847338E-15
   9.919374104946315E-15   1.042795125260616E-14   1.096260370525369E-14
   1.152466837213305E-14   1.211555070727308E-14   1.273672822385233E-14
   1.338975418874888E-14   1.407626150651418E-14   1.479796680248199E-14
   1.555667471522281E-14   1.635428240907714E-14   1.719278431805071E-14
   1.807427713293459E-14   1.900096504412021E-14   1.997516525321883E-14
   2.099931376726802E-14   2.207597149001248E-14   2.320783062549205E-14
   2.439772140994793E-14   2.564861918888095E-14   2.696365185695844E-14
   2.834610767937201E-14   2.979944351420557E-14   3.132729345637221E-14
   3.293347792473487E-14   3.462201321513366E-14   3.639712154320580E-14
   3.826324160211255E-14   4.022503966157126E-14   4.228742123594618E-14
   4.445554335057547E-14   4.673482743700364E-14   4.913097288936769E-14
   5.164997131583253E-14   5.429812152071180E-14   5.708204525473885E-14
   6.000870377286835E-14   6.308541524101502E-14   6.631987303525328E-14
   6.972016497923519E-14   7.329479356793186E-14   7.705269722826441E-14
   8.100327266979136E-14   8.515639838133770E-14   8.952245933231913E-14
   9.411237294053109E-14   9.893761637132821E-14   1.040102552364642E-13
   1.093429737643482E-13   1.149491065171605E-13   1.208426717341391E-13
   1.270384063844049E-13   1.335518030169852E-13   1.403991485001723E-13
   1.475975647470871E-13   1.551650515292856E-13   1.631205314854559E-13
   1.714838974377611E-13   1.802760621341343E-13   1.895190105409101E-13
   1.992358548165538E-13   2.094508921039397E-13   2.201896652857040E-13
   2.314790268545781E-13   2.433472060584166E-13   2.558238794878192E-13
   2.689402452828391E-13   2.827291011443480E-13   2.972249263451153E-13
   3.124639679456710E-13   3.284843314305432E-13   3.453260759914899E-13
   3.630313146960023E-13   3.816443197915335E-13   4.012116334087748E-13
   4.217821839407959E-13   4.434074083890369E-13   4.661413809821064E-13
   4.900409483889727E-13   5.151658718646596E-13   5.415789766838879E-13
   5.693463092362951E-13   5.985373021760833E-13   6.292249480390301E-13
   6.614859817609922E-13   6.954010725543049E-13   7.310550256218274E-13
   7.685369942130652E-13   8.079407025525775E-13   8.493646801981162E-13
   8.929125084145132E-13   9.386930791793416E-13   9.868208674680327E-13
   1.037416217499268E-12   1.090605643656402E-12   1.146522146837383E-12
   1.205305547024166E-12   1.267102832903244E-12   1.332068529411486E-12
   1.400365084126343E-12   1.472163273466594E-12   1.547642629719262E-12
   1.626991889960586E-12   1.710409467993456E-12   1.798103950481463E-12
   1.890294618520093E-12   1.987211995949221E-12   2.089098425778021E-12
   2.196208676163553E-12   2.308810577458298E-12   2.427185691919583E-12
   2.551630017755377E-12   2.682454729267059E-12   2.819986954939747E-12
   2.964570595425799E-12   3.116567183466904E-12   3.276356787904791E-12
   3.444338964041206E-12   3.620933752723371E-12   3.806582730653100E-12
   4.001750114545931E-12   4.206923921900961E-12   4.422617191284115E-12
   4.649369265175884E-12   4.887747138591316E-12   5.138346876844502E-12
   5.401795106002356E-12   5.678750579754777E-12   5.969905826618892E-12
   6.275988881596134E-12   6.597765106612192E-12   6.936039104291400E-12
   7.291656729851303E-12   7.665507206147631E-12   8.058525347158332E-12
   8.471693895466478E-12   8.906045979586331E-12   9.362667697277499E-12
   9.842700831306066E-12   1.034734570444347E-11   1.087786418084201E-11
   1.143558282129078E-11   1.202189620024314E-11   1.263827039290759E-11
   1.328624664112287E-11   1.396744520718284E-11   1.468356942524651E-11
   1.543640996046518E-11   1.622784928647398E-11   1.705986639244497E-11
   1.793454173147087E-11   1.885406242265091E-11   1.982072771988904E-11
   2.083695476107474E-11   2.190528461202466E-11   2.302838862029591E-11
   2.420907509475685E-11   2.545029632761967E-11   2.675515597648849E-11
   2.812691682488407E-11   2.956900894064763E-11   3.108503825262140E-11
   3.267879556705442E-11   3.435426604627254E-11   3.611563917331644E-11
   3.796731922746127E-11   3.991393629680797E-11   4.196035785548642E-11
   4.411170093441031E-11   4.637334491602001E-11   4.875094498500193E-11
   5.125044626861281E-11   5.387809870197002E-11   5.664047265546778E-11
   5.954447536339781E-11   6.259736819484932E-11   6.580678481006545E-11
   6.918075024766166E-11   7.272770099041687E-11   7.645650605981658E-11
   8.037648919208539E-11   8.449745215115045E-11   8.882969923683391E-11
   9.338406304953702E-11   9.817193157584309E-11   1.032052766627562E-10
   1.084966839517595E-10   1.140593843475498E-10   1.199072871001062E-10
   1.260550145828193E-10   1.325179388536250E-10   1.393122200905470E-10
   1.464548469977564E-10   1.539636792831496E-10   1.618574923136593E-10
   1.701560240599371E-10   1.788800244477641E-10   1.880513072395953E-10
   1.976928045759172E-10   2.078286243127989E-10   2.184841102989756E-10
   2.296859057431470E-10   2.414620198299431E-10   2.538418977510578E-10
   2.668564943266611E-10   2.805383514011322E-10   2.949216792065848E-10
   3.100424418976305E-10   3.259384474711630E-10   3.426494422959971E-10
   3.602172104886675E-10   3.786856783837930E-10   3.981010243602257E-10
   4.185117942974713E-10   4.399690229510567E-10   4.625263615502467E-10
   4.862402119370557E-10   5.111698675819433E-10   5.373776618286173E-10
   5.649291237385935E-10   5.938931419250516E-10   6.243421367855254E-10
   6.563522415639837E-10   6.900034926948694E-10   7.253800299049224E-10
   7.625703065729620E-10   8.016673108734322E-10   8.427687982565194E-10
   8.859775358459009E-10   9.314015593650485E-10   9.791544432342677E-10
   1.029355584513570E-09   1.082130501401124E-09   1.137611147033319E-09
   1.195936239370816E-09   1.257251607995076E-09   1.321710558682123E-09
   1.389474256664789E-09   1.460712129541272E-09   1.535602290837046E-09
   1.614331985278689E-09   1.697098056892433E-09   1.784107441097389E-09
   1.875577682023157E-09   1.971737476344755E-09   2.072827244993905E-09
   2.179099734175404E-09   2.290820647190588E-09   2.408269308646705E-09
   2.531739362712100E-09   2.661539507162045E-09   2.797994265049447E-09
   2.941444795928792E-09   3.092249748660253E-09   3.250786157924998E-09
   3.417450386691779E-09   3.592659116989574E-09   3.776850391462005E-09
   3.970484708305658E-09   4.174046172328216E-09   4.388043705002089E-09
   4.613012317068374E-09   4.849514443574294E-09   5.098141352675779E-09
   5.359514623326155E-09   5.634287695442583E-09   5.923147506609807E-09
   6.226816209209332E-09   6.546052970545141E-09   6.881655874961266E-09
   7.234463918251964E-09   7.605359106522929E-09   7.995268649305539E-09
   8.405167291095249E-09   8.836079740875654E-09   9.289083232535106E-09
   9.765310215941345E-09   1.026595119404849E-08   1.079225768649012E-08
   1.134554536990139E-08   1.192719735255979E-08   1.253866764414714E-08
   1.318148478159523E-08   1.385725564182981E-08   1.456766947531285E-08
   1.531450210983915E-08   1.609962038491031E-08   1.692498686873458E-08
   1.779266465575447E-08   1.870482262519047E-08   1.966374080515099E-08
   2.067181610486582E-08   2.173156825375815E-08   2.284564614597226E-08
   2.401683439670088E-08   2.524806041502916E-08   2.654240156285875E-08
   2.790309295815478E-08   2.933353552398861E-08   3.083730444332139E-08
   3.241815817045466E-08   3.408004775067242E-08   3.582712673111143E-08
   3.766376146697712E-08   3.959454214307050E-08   4.162429412004354E-08
   4.375809007123849E-08   4.600126258261919E-08   4.835941753467182E-08
   5.083844807044635E-08   5.344454930941526E-08   5.618423381809771E-08
   5.906434787062158E-08   6.209208856978873E-08   6.527502176338421E-08
   6.862110100662617E-08   7.213868735561897E-08   7.583657026020106E-08
   7.972398953137053E-08   8.381065837502642E-08   8.810678765685825E-08
   9.262311138125427E-08   9.737091347052365E-08   1.023620559934741E-07
   1.076090086783416E-07   1.131248801164719E-07   1.189234503342435E-07
   1.250192054667008E-07   1.314273735439824E-07   1.381639627830945E-07
   1.452458012996982E-07   1.526905793367056E-07   1.605168932142679E-07
   1.687442917048344E-07   1.773933249227407E-07   1.864855955032247E-07
   1.960438125658771E-07   2.060918481826883E-07   2.166547970384465E-07
   2.277590391224437E-07   2.394323052294386E-07   2.517037462425184E-07
   2.646040058185197E-07   2.781652969457274E-07   2.924214817462274E-07
   3.074081564789062E-07   3.231627399040811E-07   3.397245664901558E-07
   3.571349847323870E-07   3.754374599115891E-07   3.946776824536559E-07
   4.149036818920322E-07   4.361659463135084E-07   4.585175482313632E-07
   4.820142766780712E-07   5.067147762603122E-07   5.326806931156413E-07
   5.599768283995667E-07   5.886712995254185E-07   6.188357099375171E-07
   6.505453271413732E-07   6.838792699503975E-07   7.189207056487019E-07
   7.557570566771687E-07   7.944802181735031E-07   8.351867864101245E-07
   8.779782995927566E-07   9.229614895124448E-07   9.702485475525641E-07
   1.019957403247791E-06   1.072212017827648E-06   1.127142691821865E-06
   1.184886388974535E-06   1.245587076740662E-06   1.309396083790806E-06
   1.376472475597348E-06   1.446983449899432E-06   1.521104751407193E-06
   1.599021108330277E-06   1.680926690726763E-06   1.767025592225931E-06
   1.857532336656162E-06   1.952672409753942E-06   2.052682818661542E-06
   2.157812679559484E-06   2.268323834956494E-06   2.384491502590888E-06
   2.506604957837365E-06   2.634968249659712E-06   2.769900953983582E-06
   2.911738964915122E-06   3.060835325944577E-06   3.217561103939699E-06
   3.382306306983871E-06   3.555480849141013E-06   3.737515563838372E-06
   3.928863269062219E-06   4.129999886266632E-06   4.341425616199257E-06
   4.563666174343309E-06   4.797274088509108E-06   5.042830063274227E-06
   5.300944411916920E-06   5.572258562435050E-06   5.857446638737500E-06
   6.157217122325336E-06   6.472314597752559E-06   6.803521586349067E-06
   7.151660473355079E-06   7.517595530975630E-06   7.902235045099259E-06
   8.306533548358823E-06   8.731494166433036E-06   9.178171082454844E-06
   9.647672125732857E-06   1.014116149114281E-05   1.065986259519015E-05
   1.120506107597463E-05   1.177810794471805E-05   1.238042289460852E-05
   1.301349777749832E-05   1.367890025410163E-05   1.437827762845220E-05
   1.511336087415645E-05   1.588596886320413E-05   1.669801280667189E-05
   1.755150091786885E-05   1.844854330927518E-05   1.939135713447188E-05
   2.038227198755603E-05   2.142373557200762E-05   2.251831965336743E-05
   2.366872630905265E-05   2.487779448944308E-05   2.614850690685385E-05
   2.748399726730258E-05   2.888755786241691E-05   3.036264753898143E-05
   3.191290006484288E-05   3.354213290996319E-05   3.525435646369935E-05
   3.705378370832197E-05   3.894484037297019E-05   4.093217558888121E-05
   4.302067307206776E-05   4.521546285887350E-05   4.752193361960283E-05
   4.994574558008442E-05   5.249284407925449E-05   5.516947379370325E-05
   5.798219366137210E-05   6.093789253749760E-05   6.404380561827888E-05
   6.730753166879746E-05   7.073705109356828E-05   7.434074488930052E-05
   7.812741452284658E-05   8.210630277683995E-05   8.628711560973097E-05
   9.068004507773703E-05   9.529579336834140E-05   1.001455979981326E-04
   1.052412582289029E-04   1.105951627587705E-04   1.162203187485842E-04
   1.221303822445159E-04   1.283396900617431E-04   1.348632931974604E-04
   1.417169918417120E-04   1.489173720618311E-04   1.564818442341414E-04
   1.644286833051265E-04   1.727770709627510E-04   1.815471398061128E-04
   1.907600196021513E-04   2.004378857235852E-04   2.106040098656126E-04
   2.212828131418431E-04   2.324999216658820E-04   2.442822247276541E-04
   2.566579356775365E-04   2.696566556379260E-04   2.833094401636265E-04
   2.976488689791543E-04   3.127091189243476E-04   3.285260402464281E-04
   3.451372363788525E-04   3.625821473554690E-04   3.809021370112046E-04
   4.001405841270666E-04   4.203429776824282E-04   4.415570163829526E-04
   4.638327126376503E-04   4.872225011647799E-04   5.117813524114476E-04
   5.375668909779795E-04   5.646395192429796E-04   5.930625463914952E-04
   6.229023230539829E-04   6.542283817691393E-04   6.871135834903073E-04
   7.216342703587702E-04   7.578704249743704E-04   7.959058363985952E-04
   8.358282731292837E-04   8.777296632920470E-04   9.217062822976758E-04
   9.678589482186455E-04   1.016293225141798E-03   1.067119634757850E-03
   1.120453876450524E-03   1.176417056151677E-03   1.235135924228649E-03
   1.296743122672676E-03   1.361377441856632E-03   1.429184087128757E-03
   1.500314955508999E-03   1.574928922750263E-03   1.653192141023460E-03
   1.735278347478714E-03   1.821369183930595E-03   1.911654527903113E-03
   2.006332835262985E-03   2.105611494655489E-03   2.209707193943139E-03
   2.318846298830841E-03   2.433265243841668E-03   2.553210935784890E-03
   2.678941169833649E-03   2.810725058299887E-03   2.948843472163636E-03
   3.093589495377505E-03   3.245268891927202E-03   3.404200585585071E-03
   3.570717152245448E-03   3.745165324674234E-03   3.927906509449885E-03
   4.119317315803186E-03   4.319790095994856E-03   4.529733496791190E-03
   4.749573021511858E-03   4.979751602031917E-03   5.220730180020098E-03
   5.472988296583328E-03   5.737024689372863E-03   6.013357896075714E-03
   6.302526863078653E-03   6.605091557943961E-03   6.921633584172874E-03
   7.252756796563974E-03   7.599087915286556E-03   7.961277136592646E-03
   8.339998737878718E-03   8.735951674583905E-03   9.149860166168602E-03
   9.582474268163632E-03   1.003457042700518E-02   1.050695201408369E-02
   1.100044983512761E-02   1.151592261071937E-02   1.205425742339972E-02
   1.261637012645443E-02   1.320320570910077E-02   1.381573861239024E-02
   1.445497298973001E-02   1.512194290548681E-02   1.581771246468274E-02
   1.654337586631961E-02   1.730005737237406E-02   1.808891118399934E-02
   1.891112121594032E-02   1.976790075962842E-02   2.066049202486655E-02
   2.159016554944524E-02   2.255821946545297E-02   2.356597861045653E-02
   2.461479347113396E-02   2.570603894635043E-02   2.684111291607230E-02
   2.802143460193126E-02   2.924844270467230E-02   3.052359330316173E-02
   3.184835749909503E-02   3.322421879103539E-02   3.465267016094783E-02
   3.613521085596486E-02   3.767334284775391E-02   3.926856695155186E-02
   4.092237858670189E-02   4.263626316039500E-02   4.441169105627507E-02
   4.625011220965197E-02   4.815295025127614E-02   5.012159620198962E-02
   5.215740170109787E-02   5.426167175201717E-02   5.643565696967483E-02
   5.868054531528369E-02   6.099745330550885E-02   6.338741668471612E-02
   6.585138055095539E-02   6.839018892862340E-02   7.100457378338768E-02
   7.369514347796348E-02   7.646237067075411E-02   7.930657966319959E-02
   8.222793320597850E-02   8.522641877897966E-02   8.830183436523527E-02
   9.145377374481685E-02   9.468161134103895E-02   9.798448665823206E-02
   1.013612883578414E-01   1.048106380276820E-01   1.083308737078630E-01
   1.119200332461528E-01   1.155758375654045E-01   1.192956739360838E-01
   1.230765793578811E-01   1.269152241658705E-01   1.308078959885670E-01
   1.347504841975580E-01   1.387384650010084E-01   1.427668873461664E-01
   1.468303598089883E-01   1.509230386619135E-01   1.550386173236165E-01
   1.591703174070067E-01   1.633108815936266E-01   1.674525685737941E-01
   1.715871503019609E-01   1.757059118256799E-01   1.797996539539221E-01
   1.838586990359369E-01   1.878729001251399E-01   1.918316538031665E-01
   1.957239169369707E-01   1.995382276362126E-01   2.032627306687451E-01
   2.068852075784396E-01   2.103931117313356E-01   2.137736084928649E-01
   2.170136207102108E-01   2.200998796393434E-01   2.230189814156399E-01
   2.257574491198656E-01   2.283018004375231E-01   2.306386208489542E-01
   2.327546422200571E-01   2.346368265891504E-01   2.362724548644934E-01
   2.376492200596577E-01   2.387553246007948E-01   2.395795811415388E-01
   2.401115162187538E-01   2.403414759766057E-01   2.402607330788960E-01
   2.398615938217494E-01   2.391375043523958E-01   2.380831547969370E-01
   2.366945800028494E-01   2.349692555129540E-01   2.329061873092247E-01
   2.305059937997864E-01   2.277709784734194E-01   2.247051916155687E-01
   2.213144794707088E-01   2.176065192502888E-01   2.135908384253163E-01
   2.092788168093279E-01   2.046836700319386E-01   1.998204131252833E-01
   1.947058030945915E-01   1.893582595178367E-01   1.837977624145283E-01
   1.780457268357593E-01   1.721248538504003E-01   1.660589578284128E-01
   1.598727701427102E-01   1.535917196155454E-01   1.472416902129778E-01
   1.408487566295276E-01   1.344388984927816E-01   1.280376939430707E-01
   1.216699932963584E-01   1.153595733720030E-01   1.091287728574747E-01
   1.029981087914678E-01   9.698587388420732E-02   9.110771397694842E-02
   8.537618450066875E-02   7.980028436810535E-02   7.438496537971359E-02
   6.913061501485808E-02   6.403251050353549E-02   5.908502927749981E-02
   5.429734292980304E-02   4.968205797504299E-02   4.525077581623532E-02
   4.101398448332738E-02   3.698095627987419E-02   3.315965294691847E-02
   2.955663999051789E-02   2.617701183412341E-02   2.302432944622196E-02
   2.010057205447374E-02   1.740610448755242E-02   1.493966158284671E-02
   1.269835096044059E-02   1.067767529034541E-02   8.871574970326757E-03
   7.272491886372356E-03   5.871454648329000E-03   4.658185379283197E-03
   3.621225979459297E-03   2.748081832746274E-03   2.025394184016427E-03
   1.439136011083308E-03   9.748064604108708E-04   6.176516145081634E-04
   3.528925619831758E-04   1.659628945748226E-04   4.275120801472410E-05
  -3.015503763367788E-05  -6.522839614556131E-05  -7.376745055800993E-05
  -6.567464898377118E-05  -4.925091204360799E-05  -3.101222278517612E-05
  -1.553367219850332E-05  -5.326712193193250E-06  -7.556780970974231E-07
   0.000000000000000E+00   0.000000000000000E+00   0.000000000000000E+00
   0.000000000000000E+00   0.000000000000000E+00   0.000000000000000E+00
   0.000000000000000E+00   0.000000000000000E+00   0.000000000000000E+00
   0.000000000000000E+00   0.000000000000000E+00   0.000000000000000E+00
   0.000000000000000E+00   0.000000000000000E+00   0.000000000000000E+00
   0.000000000000000E+00   0.000000000000000E+00   0.000000000000000E+00
   0.000000000000000E+00   0.000000000000000E+00   0.000000000000000E+00
   0.000000000000000E+00   0.000000000000000E+00   0.000000000000000E+00
   0.000000000000000E+00   0.000000000000000E+00   0.000000000000000E+00
   0.000000000000000E+00   0.000000000000000E+00   0.000000000000000E+00
   0.000000000000000E+00   0.000000000000000E+00   0.000000000000000E+00
   0.000000000000000E+00   0.000000000000000E+00   0.000000000000000E+00
   0.000000000000000E+00   0.000000000000000E+00   0.000000000000000E+00
   0.000000000000000E+00   0.000000000000000E+00   0.000000000000000E+00
   0.000000000000000E+00   0.000000000000000E+00   0.000000000000000E+00
   0.000000000000000E+00   0.000000000000000E+00   0.000000000000000E+00
   0.000000000000000E+00   0.000000000000000E+00   0.000000000000000E+00
   0.000000000000000E+00   0.000000000000000E+00   0.000000000000000E+00
   0.000000000000000E+00   0.000000000000000E+00   0.000000000000000E+00
   0.000000000000000E+00   0.000000000000000E+00   0.000000000000000E+00
   0.000000000000000E+00   0.000000000000000E+00   0.000000000000000E+00
   0.000000000000000E+00   0.000000000000000E+00   0.000000000000000E+00
   0.000000000000000E+00   0.000000000000000E+00   0.000000000000000E+00
   0.000000000000000E+00   0.000000000000000E+00   0.000000000000000E+00
   0.000000000000000E+00   0.000000000000000E+00   0.000000000000000E+00
   0.000000000000000E+00   0.000000000000000E+00   0.000000000000000E+00
   0.000000000000000E+00   0.000000000000000E+00   0.000000000000000E+00
   0.000000000000000E+00   0.000000000000000E+00   0.000000000000000E+00
   0.000000000000000E+00   0.000000000000000E+00   0.000000000000000E+00
   0.000000000000000E+00   0.000000000000000E+00   0.000000000000000E+00
   0.000000000000000E+00   0.000000000000000E+00   0.000000000000000E+00
   0.000000000000000E+00   0.000000000000000E+00   0.000000000000000E+00
   0.000000000000000E+00   0.000000000000000E+00   0.000000000000000E+00
   0.000000000000000E+00   0.000000000000000E+00   0.000000000000000E+00
   0.000000000000000E+00   0.000000000000000E+00   0.000000000000000E+00
   0.000000000000000E+00   0.000000000000000E+00   0.000000000000000E+00
   0.000000000000000E+00   0.000000000000000E+00   0.000000000000000E+00
   0.000000000000000E+00   0.000000000000000E+00   0.000000000000000E+00
   0.000000000000000E+00   0.000000000000000E+00   0.000000000000000E+00
   0.000000000000000E+00   0.000000000000000E+00   0.000000000000000E+00
   0.000000000000000E+00   0.000000000000000E+00   0.000000000000000E+00
   0.000000000000000E+00   0.000000000000000E+00   0.000000000000000E+00
   0.000000000000000E+00   0.000000000000000E+00   0.000000000000000E+00
   0.000000000000000E+00   0.000000000000000E+00   0.000000000000000E+00
   0.000000000000000E+00   0.000000000000000E+00   0.000000000000000E+00
   0.000000000000000E+00   0.000000000000000E+00   0.000000000000000E+00
   0.000000000000000E+00   0.000000000000000E+00   0.000000000000000E+00
   0.000000000000000E+00   0.000000000000000E+00   0.000000000000000E+00
   0.000000000000000E+00   0.000000000000000E+00   0.000000000000000E+00
   0.000000000000000E+00   0.000000000000000E+00   0.000000000000000E+00
   0.000000000000000E+00   0.000000000000000E+00   0.000000000000000E+00
   0.000000000000000E+00   0.000000000000000E+00   0.000000000000000E+00
   0.000000000000000E+00   0.000000000000000E+00   0.000000000000000E+00
   0.000000000000000E+00   0.000000000000000E+00   0.000000000000000E+00
   0.000000000000000E+00   0.000000000000000E+00   0.000000000000000E+00
   0.000000000000000E+00   0.000000000000000E+00   0.000000000000000E+00
   0.000000000000000E+00   0.000000000000000E+00   0.000000000000000E+00
   0.000000000000000E+00   0.000000000000000E+00   0.000000000000000E+00
   0.000000000000000E+00   0.000000000000000E+00   0.000000000000000E+00
   0.000000000000000E+00   0.000000000000000E+00   0.000000000000000E+00
   0.000000000000000E+00   0.000000000000000E+00   0.000000000000000E+00
   0.000000000000000E+00   0.000000000000000E+00   0.000000000000000E+00
   0.000000000000000E+00   0.000000000000000E+00   0.000000000000000E+00
   0.000000000000000E+00   0.000000000000000E+00   0.000000000000000E+00
   0.000000000000000E+00   0.000000000000000E+00   0.000000000000000E+00
   0.000000000000000E+00   0.000000000000000E+00   0.000000000000000E+00
   0.000000000000000E+00   0.000000000000000E+00   0.000000000000000E+00
   0.000000000000000E+00   0.000000000000000E+00   0.000000000000000E+00
   0.000000000000000E+00   0.000000000000000E+00   0.000000000000000E+00
   0.000000000000000E+00   0.000000000000000E+00   0.000000000000000E+00
   0.000000000000000E+00   0.000000000000000E+00   0.000000000000000E+00
   0.000000000000000E+00   0.000000000000000E+00   0.000000000000000E+00
   0.000000000000000E+00   0.000000000000000E+00   0.000000000000000E+00
   0.000000000000000E+00   0.000000000000000E+00   0.000000000000000E+00
   0.000000000000000E+00   0.000000000000000E+00   0.000000000000000E+00
   0.000000000000000E+00   0.000000000000000E+00   0.000000000000000E+00
   0.000000000000000E+00   0.000000000000000E+00   0.000000000000000E+00
   0.000000000000000E+00   0.000000000000000E+00   0.000000000000000E+00
   0.000000000000000E+00   0.000000000000000E+00   0.000000000000000E+00
   0.000000000000000E+00   0.000000000000000E+00   0.000000000000000E+00
   0.000000000000000E+00   0.000000000000000E+00   0.000000000000000E+00
   0.000000000000000E+00   0.000000000000000E+00   0.000000000000000E+00
   0.000000000000000E+00   0.000000000000000E+00   0.000000000000000E+00
   0.000000000000000E+00   0.000000000000000E+00   0.000000000000000E+00
   0.000000000000000E+00   0.000000000000000E+00   0.000000000000000E+00
   0.000000000000000E+00   0.000000000000000E+00   0.000000000000000E+00
   0.000000000000000E+00   0.000000000000000E+00   0.000000000000000E+00
   0.000000000000000E+00   0.000000000000000E+00   0.000000000000000E+00
   0.000000000000000E+00   0.000000000000000E+00   0.000000000000000E+00
   0.000000000000000E+00   0.000000000000000E+00   0.000000000000000E+00
   0.000000000000000E+00   0.000000000000000E+00   0.000000000000000E+00
   0.000000000000000E+00   0.000000000000000E+00   0.000000000000000E+00
   0.000000000000000E+00   0.000000000000000E+00   0.000000000000000E+00
   0.000000000000000E+00   0.000000000000000E+00   0.000000000000000E+00
   0.000000000000000E+00   0.000000000000000E+00   0.000000000000000E+00
   0.000000000000000E+00   0.000000000000000E+00   0.000000000000000E+00
   0.000000000000000E+00   0.000000000000000E+00   0.000000000000000E+00
   0.000000000000000E+00   0.000000000000000E+00   0.000000000000000E+00
   0.000000000000000E+00   0.000000000000000E+00   0.000000000000000E+00
   0.000000000000000E+00   0.000000000000000E+00   0.000000000000000E+00
   0.000000000000000E+00   0.000000000000000E+00   0.000000000000000E+00
   0.000000000000000E+00   0.000000000000000E+00   0.000000000000000E+00
   0.000000000000000E+00   0.000000000000000E+00   0.000000000000000E+00
   0.000000000000000E+00   0.000000000000000E+00   0.000000000000000E+00
   0.000000000000000E+00   0.000000000000000E+00   0.000000000000000E+00
   0.000000000000000E+00   0.000000000000000E+00   0.000000000000000E+00
   0.000000000000000E+00   0.000000000000000E+00   0.000000000000000E+00
   0.000000000000000E+00   0.000000000000000E+00   0.000000000000000E+00
   0.000000000000000E+00   0.000000000000000E+00   0.000000000000000E+00
   0.000000000000000E+00   0.000000000000000E+00   0.000000000000000E+00
   0.000000000000000E+00   0.000000000000000E+00   0.000000000000000E+00
   0.000000000000000E+00   0.000000000000000E+00   0.000000000000000E+00
   0.000000000000000E+00   0.000000000000000E+00   0.000000000000000E+00
      </PP_QIJL.3.4.2>
      <PP_QIJL.4.4.0 first_index="4" second_index="4" composite_index="10" angular_momentum="0" size="1095">
   1.362519064339054E-08   1.397011398486074E-08   1.432376910219783E-08
   1.468637704135544E-08   1.505816444409194E-08   1.543936368962885E-08
   1.583021303989539E-08   1.623095678844999E-08   1.664184541317159E-08
   1.706313573281661E-08   1.749509106753883E-08   1.793798140347312E-08
   1.839208356148552E-08   1.885768137019526E-08   1.933506584337695E-08
   1.982453536185345E-08   2.032639585999370E-08   2.084096101693159E-08
   2.136855245262554E-08   2.190949992888159E-08   2.246414155546498E-08
   2.303282400142985E-08   2.361590271179861E-08   2.421374212972662E-08
   2.482671592429106E-08   2.545520722404597E-08   2.609960885649029E-08
   2.676032359359758E-08   2.743776440356166E-08   2.813235470891515E-08
   2.884452865118212E-08   2.957473136223074E-08   3.032341924249504E-08
   3.109106024623995E-08   3.187813417404806E-08   3.268513297271028E-08
   3.351256104270851E-08   3.436093555348246E-08   3.523078676667711E-08
   3.612265836757366E-08   3.703710780490998E-08   3.797470663930449E-08
   3.893604090049987E-08   3.992171145365056E-08   4.093233437488316E-08
   4.196854133636361E-08   4.303098000111282E-08   4.412031442781707E-08
   4.523722548588598E-08   4.638241128101825E-08   4.755658759153975E-08
   4.876048831578843E-08   4.999486593082440E-08   5.126049196275228E-08
   5.255815746895028E-08   5.388867353250602E-08   5.525287176916999E-08
   5.665160484714219E-08   5.808574702001701E-08   5.955619467322046E-08
   6.106386688427925E-08   6.260970599727420E-08   6.419467821183572E-08
   6.581977418704944E-08   6.748600966065047E-08   6.919442608389161E-08
   7.094609127248422E-08   7.274210007401733E-08   7.458357505227248E-08
   7.647166718886252E-08   7.840755660263162E-08   8.039245328726770E-08
   8.242759786758734E-08   8.451426237496589E-08   8.665375104239866E-08
   8.884740111968719E-08   9.109658370926417E-08   9.340270462317596E-08
   9.576720526176031E-08   9.819156351456809E-08   1.006772946840907E-07
   1.032259524328734E-07   1.058391297546037E-07   1.085184599697834E-07
   1.112656177466066E-07   1.140823201476797E-07   1.169703277032415E-07
   1.199314455115501E-07   1.229675243671268E-07   1.260804619175626E-07
   1.292722038496073E-07   1.325447451052860E-07   1.359001311288018E-07
   1.393404591450025E-07   1.428678794702145E-07   1.464845968562569E-07
   1.501928718684823E-07   1.539950222987021E-07   1.578934246138791E-07
   1.618905154414959E-07   1.659887930925225E-07   1.701908191229412E-07
   1.744992199347993E-07   1.789166884177931E-07   1.834459856324106E-07
   1.880899425356793E-07   1.928514617506045E-07   1.977335193804002E-07
   2.027391668686469E-07   2.078715329065410E-07   2.131338253884227E-07
   2.185293334168126E-07   2.240614293582031E-07   2.297335709508930E-07
   2.355493034661833E-07   2.415122619242806E-07   2.476261733662995E-07
   2.538948591837796E-07   2.603222375071732E-07   2.669123256548007E-07
   2.736692426437974E-07   2.805972117646280E-07   2.877005632207740E-07
   2.949837368352447E-07   3.024512848256057E-07   3.101078746492522E-07
   3.179582919207161E-07   3.260074434028224E-07   3.342603600735658E-07
   3.427222002706283E-07   3.513982529154966E-07   3.602939408192000E-07
   3.694148240717348E-07   3.787666035172876E-07   3.883551243174406E-07
   3.981863796045712E-07   4.082665142277434E-07   4.186018285934249E-07
   4.291987826034310E-07   4.400639996925606E-07   4.512042709684388E-07
   4.626265594561655E-07   4.743380044504151E-07   4.863459259777084E-07
   4.986578293716503E-07   5.112814099639834E-07   5.242245578944013E-07
   5.374953630421205E-07   5.511021200822913E-07   5.650533336704207E-07
   5.793577237580254E-07   5.940242310428614E-07   6.090620225571217E-07
   6.244804973970969E-07   6.402892925978900E-07   6.564982891568339E-07
   6.731176182094078E-07   6.901576673614871E-07   7.076290871818935E-07
   7.255427978593116E-07   7.439099960277112E-07   7.627421617645672E-07
   7.820510657662318E-07   8.018487767049505E-07   8.221476687721301E-07
   8.429604294125388E-07   8.643000672543331E-07   8.861799202397966E-07
   9.086136639619274E-07   9.316153202120692E-07   9.551992657438963E-07
   9.793802412592991E-07   1.004173360621706E-06   1.029594120302665E-06
   1.055658409067558E-06   1.082382517906485E-06   1.109783150216597E-06
   1.137877432242132E-06   1.166682923778784E-06   1.196217629149035E-06
   1.226500008455305E-06   1.257548989118022E-06   1.289383977705719E-06
   1.322024872064644E-06   1.355492073755425E-06   1.389806500804531E-06
   1.424989600778594E-06   1.461063364189641E-06   1.498050338239711E-06
   1.535973640913418E-06   1.574856975427216E-06   1.614724645044514E-06
   1.655601568265762E-06   1.697513294403106E-06   1.740486019549313E-06
   1.784546602950904E-06   1.829722583795827E-06   1.876042198426039E-06
   1.923534397985856E-06   1.972228866517077E-06   2.022156039512103E-06
   2.073347122936830E-06   2.125834112734995E-06   2.179649814826318E-06
   2.234827865610902E-06   2.291402752992610E-06   2.349409837934750E-06
   2.408885376561333E-06   2.469866542817855E-06   2.532391451705748E-06
   2.596499183104905E-06   2.662229806199382E-06   2.729624404521312E-06
   2.798725101628845E-06   2.869575087434112E-06   2.942218645197594E-06
   3.016701179205949E-06   3.093069243150358E-06   3.171370569223331E-06
   3.251654097952059E-06   3.333970008786913E-06   3.418369751464374E-06
   3.504906078163775E-06   3.593633076478125E-06   3.684606203219578E-06
   3.777882319080539E-06   3.873519724172371E-06   3.971578194463527E-06
   4.072119019140207E-06   4.175205038912739E-06   4.280900685291557E-06
   4.389272020857557E-06   4.500386780551695E-06   4.614314414009870E-06
   4.731126128969481E-06   4.850894935774632E-06   4.973695693008133E-06
   5.099605154278412E-06   5.228702016190892E-06   5.361066967533706E-06
   5.496782739708318E-06   5.635934158436973E-06   5.778608196778804E-06
   5.924894029488077E-06   6.074883088748430E-06   6.228669121317860E-06
   6.386348247120324E-06   6.548019019320394E-06   6.713782485918647E-06
   6.883742252906246E-06   7.058004549018066E-06   7.236678292125043E-06
   7.419875157306979E-06   7.607709646648573E-06   7.800299160802145E-06
   7.997764072361789E-06   8.200227801094890E-06   8.407816891077874E-06
   8.620661089784527E-06   8.838893429176241E-06   9.062650308844784E-06
   9.292071581259729E-06   9.527300639173555E-06   9.768484505239303E-06
   1.001577392389660E-05   1.026932345558347E-05   1.052929157333291E-05
   1.079584076181448E-05   1.106913761888280E-05   1.134935295969655E-05
   1.163666192347267E-05   1.193124408294293E-05   1.223328355658086E-05
   1.254296912366934E-05   1.286049434228079E-05   1.318605767024344E-05
   1.351986258916955E-05   1.386211773162284E-05   1.421303701150460E-05
   1.457283975774015E-05   1.494175085134883E-05   1.532000086598346E-05
   1.570782621202677E-05   1.610546928433519E-05   1.651317861372188E-05
   1.693120902227390E-05   1.735982178260056E-05   1.779928478111211E-05
   1.824987268543118E-05   1.871186711604135E-05   1.918555682227984E-05
   1.967123786278477E-05   2.016921379050912E-05   2.067979584241742E-05
   2.120330313398346E-05   2.174006285861026E-05   2.229041049209742E-05
   2.285469000228294E-05   2.343325406399083E-05   2.402646427941878E-05
   2.463469140410299E-05   2.525831557860209E-05   2.589772656604412E-05
   2.655332399568531E-05   2.722551761263271E-05   2.791472753388628E-05
   2.862138451086092E-05   2.934593019855172E-05   3.008881743151093E-05
   3.085051050680888E-05   3.163148547415526E-05   3.243223043336237E-05
   3.325324583933556E-05   3.409504481478150E-05   3.495815347082979E-05
   3.584311123576726E-05   3.675047119209122E-05   3.768080042209103E-05
   3.863468036217452E-05   3.961270716616007E-05   4.061549207776088E-05
   4.164366181249454E-05   4.269785894925546E-05   4.377874233179537E-05
   4.488698748036171E-05   4.602328701375161E-05   4.718835108204344E-05
   4.838290781027781E-05   4.960770375336341E-05   5.086350436249196E-05
   5.215109446335396E-05   5.347127874645181E-05   5.482488226981857E-05
   5.621275097445396E-05   5.763575221280005E-05   5.909477529058676E-05
   6.059073202238319E-05   6.212455730120409E-05   6.369720968252401E-05
   6.530967198306526E-05   6.696295189473254E-05   6.865808261407576E-05
   7.039612348767581E-05   7.217816067385395E-05   7.400530782111808E-05
   7.587870676376872E-05   7.779952823509765E-05   7.976897259862506E-05
   8.178827059782980E-05   8.385868412484043E-05   8.598150700856662E-05
   8.815806582276005E-05   9.038972071451109E-05   9.267786625369533E-05
   9.502393230389972E-05   9.742938491537143E-05   9.989572724054413E-05
   1.024245004727136E-04   1.050172848084462E-04   1.076757004343192E-04
   1.104014085386092E-04   1.131961123485546E-04   1.160615581938429E-04
   1.189995365969799E-04   1.220118833912232E-04   1.251004808667734E-04
   1.282672589459357E-04   1.315141963879861E-04   1.348433220244881E-04
   1.382567160258299E-04   1.417565111997710E-04   1.453448943228012E-04
   1.490241075051462E-04   1.527964495902621E-04   1.566642775896922E-04
   1.606300081541788E-04   1.646961190819376E-04   1.688651508650407E-04
   1.731397082748617E-04   1.775224619875708E-04   1.820161502506890E-04
   1.866235805917328E-04   1.913476315700156E-04   1.961912545726882E-04
   2.011574756561340E-04   2.062493974338623E-04   2.114702010120704E-04
   2.168231479740707E-04   2.223115824148201E-04   2.279389330268065E-04
   2.337087152385873E-04   2.396245334073064E-04   2.456900830665418E-04
   2.519091532308834E-04   2.582856287586613E-04   2.648234927742892E-04
   2.715268291517237E-04   2.783998250605680E-04   2.854467735764039E-04
   2.926720763569594E-04   3.000802463857659E-04   3.076759107850038E-04
   3.154638136992658E-04   3.234488192520276E-04   3.316359145766418E-04
   3.400302129237303E-04   3.486369568468892E-04   3.574615214686662E-04
   3.665094178288306E-04   3.757862963169909E-04   3.852979501916743E-04
   3.950503191880394E-04   4.050494932164285E-04   4.153017161540477E-04
   4.258133897320924E-04   4.365910775207132E-04   4.476415090142659E-04
   4.589715838193454E-04   4.705883759481826E-04   4.824991382200270E-04
   4.947113067732120E-04   5.072325056906678E-04   5.200705517417010E-04
   5.332334592429544E-04   5.467294450415011E-04   5.605669336231241E-04
   5.747545623488956E-04   5.893011868232376E-04   6.042158863967498E-04
   6.195079698071381E-04   6.351869809616804E-04   6.512627048647436E-04
   6.677451736939400E-04   6.846446730286176E-04   7.019717482344527E-04
   7.197372110080045E-04   7.379521460852000E-04   7.566279181177770E-04
   7.757761787218617E-04   7.954088737029041E-04   8.155382504613293E-04
   8.361768655833610E-04   8.573375926215468E-04   8.790336300696903E-04
   9.012785095369260E-04   9.240861041258416E-04   9.474706370196502E-04
   9.714466902835091E-04   9.960292138852457E-04   1.021233534940835E-03
   1.047075367190108E-03   1.073570820708308E-03   1.100736411859219E-03
   1.128589073495738E-03   1.157146165413906E-03   1.186425485066507E-03
   1.216445278542540E-03   1.247224251818947E-03   1.278781582291190E-03
   1.311136930589362E-03   1.344310452686684E-03   1.378322812307413E-03
   1.413195193641275E-03   1.448949314371790E-03   1.485607439025905E-03
   1.523192392652605E-03   1.561727574838269E-03   1.601236974066719E-03
   1.641745182432106E-03   1.683277410712906E-03   1.725859503815477E-03
   1.769517956595823E-03   1.814279930068337E-03   1.860173268010526E-03
   1.907226513972860E-03   1.955468928703053E-03   2.004930507994317E-03
   2.055642000967211E-03   2.107634928795007E-03   2.160941603882575E-03
   2.215595149508999E-03   2.271629519944348E-03   2.329079521051107E-03
   2.387980831381098E-03   2.448370023778738E-03   2.510284587501742E-03
   2.573762950870578E-03   2.638844504457972E-03   2.705569624830215E-03
   2.773979698851860E-03   2.844117148565803E-03   2.916025456660762E-03
   2.989749192538263E-03   3.065334038991572E-03   3.142826819508897E-03
   3.222275526213453E-03   3.303729348453050E-03   3.387238702051890E-03
   3.472855259237451E-03   3.560631979255311E-03   3.650623139684827E-03
   3.742884368468675E-03   3.837472676669098E-03   3.934446491963980E-03
   4.033865692895527E-03   4.135791643884456E-03   4.240287231022513E-03
   4.347416898655804E-03   4.457246686771649E-03   4.569844269201077E-03
   4.685278992649132E-03   4.803621916564772E-03   4.924945853861789E-03
   5.049325412501961E-03   5.176837037951052E-03   5.307559056517866E-03
   5.441571719586128E-03   5.578957248748032E-03   5.719799881848039E-03
   5.864185919944379E-03   6.012203775195044E-03   6.163944019674070E-03
   6.319499435122763E-03   6.478965063639587E-03   6.642438259310943E-03
   6.810018740783717E-03   6.981808644779122E-03   7.157912580545305E-03
   7.338437685244835E-03   7.523493680270772E-03   7.713192928483080E-03
   7.907650492354734E-03   8.106984193014116E-03   8.311314670167864E-03
   8.520765442884928E-03   8.735462971219514E-03   8.955536718647008E-03
   9.181119215282975E-03   9.412346121851491E-03   9.649356294364165E-03
   9.892291849466703E-03   1.014129823040449E-02   1.039652427355282E-02
   1.065812227545194E-02   1.092624806027979E-02   1.120106104768885E-02
   1.148272432092581E-02   1.177140469514427E-02   1.206727278581283E-02
   1.237050307711057E-02   1.268127399019270E-02   1.299976795119795E-02
   1.332617145885769E-02   1.366067515155506E-02   1.400347387366827E-02
   1.435476674101882E-02   1.471475720523000E-02   1.508365311678464E-02
   1.546166678655438E-02   1.584901504555384E-02   1.624591930265348E-02
   1.665260559996423E-02   1.706930466558403E-02   1.749625196337343E-02
   1.793368773940122E-02   1.838185706467428E-02   1.884100987373774E-02
   1.931140099869942E-02   1.979329019820213E-02   2.028694218083093E-02
   2.079262662240730E-02   2.131061817658249E-02   2.184119647810112E-02
   2.238464613806358E-02   2.294125673046786E-02   2.351132276926423E-02
   2.409514367510360E-02   2.469302373090572E-02   2.530527202531698E-02
   2.593220238306544E-02   2.657413328115749E-02   2.723138774979349E-02
   2.790429325680762E-02   2.859318157436481E-02   2.929838862656734E-02
   3.002025431654355E-02   3.075912233150443E-02   3.151533992416417E-02
   3.228925766882793E-02   3.308122919035163E-02   3.389161086407707E-02
   3.472076148474041E-02   3.556904190224096E-02   3.643681462204599E-02
   3.732444336788696E-02   3.823229260428328E-02   3.916072701630433E-02
   4.011011094385171E-02   4.108080776761420E-02   4.207317924371240E-02
   4.308758478391510E-02   4.412438067817163E-02   4.518391925606440E-02
   4.626654798364841E-02   4.737260849200364E-02   4.850243553368939E-02
   4.965635586315392E-02   5.083468703701979E-02   5.203773613004010E-02
   5.326579836239731E-02   5.451915563390502E-02   5.579807496057006E-02
   5.710280680887918E-02   5.843358332310159E-02   5.979061644083521E-02
   6.117409589198722E-02   6.258418707636211E-02   6.402102881503867E-02
   6.548473097076139E-02   6.697537193264165E-02   6.849299596058196E-02
   7.003761038499218E-02   7.160918265757393E-02   7.320763724921381E-02
   7.483285239134750E-02   7.648465665755062E-02   7.816282538257961E-02
   7.986707691663419E-02   8.159706871325906E-02   8.335239325003901E-02
   8.513257378209592E-02   8.693705992936378E-02   8.876522309971442E-02
   9.061635175124751E-02   9.248964649844127E-02   9.438421506841120E-02
   9.629906711524561E-02   9.823310890228920E-02   1.001851378643534E-01
   1.021538370641351E-01   1.041377695596587E-01   1.061353727023157E-01
   1.081449523880696E-01   1.101646772876556E-01   1.121925730851024E-01
   1.142265167576839E-01   1.162642309344616E-01   1.183032783748859E-01
   1.203410566135391E-01   1.223747928219572E-01   1.244015389436145E-01
   1.264181671635459E-01   1.284213657797053E-01   1.304076355490263E-01
   1.323732865871766E-01   1.343144359072068E-01   1.362270056886027E-01
   1.381067223746092E-01   1.399491167020712E-01   1.417495247743032E-01
   1.435030902936217E-01   1.452047680760170E-01   1.468493289758816E-01
   1.484313663536588E-01   1.499453042235159E-01   1.513854072215655E-01
   1.527457925375331E-01   1.540204439538904E-01   1.552032281361339E-01
   1.562879133157914E-01   1.572681905036456E-01   1.581376973642524E-01
   1.588900448737753E-01   1.595188468711435E-01   1.600177525971571E-01
   1.603804822970848E-01   1.606008659390895E-01   1.606728850730944E-01
   1.605907178220616E-01   1.603487869596755E-01   1.599418109847383E-01
   1.593648580527881E-01   1.586134025692368E-01   1.576833841853715E-01
   1.565712688686537E-01   1.552741116417185E-01   1.537896205002712E-01
   1.521162209287747E-01   1.502531203345977E-01   1.482003716165874E-01
   1.459589349733763E-01   1.435307369409886E-01   1.409187255295703E-01
   1.381269202066928E-01   1.351604553514651E-01   1.320256156816890E-01
   1.287298620380748E-01   1.252818457980738E-01   1.216914100905778E-01
   1.179695758956210E-01   1.141285110446848E-01   1.101814800922955E-01
   1.061427730138673E-01   1.020276107041306E-01   9.785202531163405E-02
   9.363271355451844E-02   8.938686132837251E-02   8.513193814596864E-02
   8.088546024852097E-02   7.666472160637255E-02   7.248649249068613E-02
   6.836668585335649E-02   6.431999240554578E-02   6.035948604016522E-02
   5.649620210293185E-02   5.273869198056195E-02   4.909255854090392E-02
   4.555997812270440E-02   4.213921602263687E-02   3.882722892859039E-02
   3.562994849113896E-02   3.255536408649840E-02   2.961072091491534E-02
   2.680245135068698E-02   2.413611146961006E-02   2.161632386533296E-02
   1.924672787197582E-02   1.702993829799976E-02   1.496751374365424E-02
   1.305993551950416E-02   1.130659810498283E-02   9.705811982312962E-03
   8.254819551563375E-03   6.949824676738492E-03   5.786036230643193E-03
   4.757725798720108E-03   3.858299470621773E-03   3.080383393556735E-03
   2.415921520013353E-03   1.856283969379341E-03   1.392391367613571E-03
   1.014851466307087E-03   7.140940588769573E-04   4.805181075285270E-04
   3.046399492180607E-04   1.772426789313497E-04   8.952327585162734E-05
   3.323442514467645E-05   8.177425849381637E-07  -1.447502909189546E-05
  -1.847638240774774E-05  -1.601655145297420E-05  -1.085975786244142E-05
  -5.666756579536525E-06  -1.987161033806251E-06  -2.849016617900713E-07
   0.000000000000000E+00   0.000000000000000E+00   0.000000000000000E+00
   0.000000000000000E+00   0.000000000000000E+00   0.000000000000000E+00
   0.000000000000000E+00   0.000000000000000E+00   0.000000000000000E+00
   0.000000000000000E+00   0.000000000000000E+00   0.000000000000000E+00
   0.000000000000000E+00   0.000000000000000E+00   0.000000000000000E+00
   0.000000000000000E+00   0.000000000000000E+00   0.000000000000000E+00
   0.000000000000000E+00   0.000000000000000E+00   0.000000000000000E+00
   0.000000000000000E+00   0.000000000000000E+00   0.000000000000000E+00
   0.000000000000000E+00   0.000000000000000E+00   0.000000000000000E+00
   0.000000000000000E+00   0.000000000000000E+00   0.000000000000000E+00
   0.000000000000000E+00   0.000000000000000E+00   0.000000000000000E+00
   0.000000000000000E+00   0.000000000000000E+00   0.000000000000000E+00
   0.000000000000000E+00   0.000000000000000E+00   0.000000000000000E+00
   0.000000000000000E+00   0.000000000000000E+00   0.000000000000000E+00
   0.000000000000000E+00   0.000000000000000E+00   0.000000000000000E+00
   0.000000000000000E+00   0.000000000000000E+00   0.000000000000000E+00
   0.000000000000000E+00   0.000000000000000E+00   0.000000000000000E+00
   0.000000000000000E+00   0.000000000000000E+00   0.000000000000000E+00
   0.000000000000000E+00   0.000000000000000E+00   0.000000000000000E+00
   0.000000000000000E+00   0.000000000000000E+00   0.000000000000000E+00
   0.000000000000000E+00   0.000000000000000E+00   0.000000000000000E+00
   0.000000000000000E+00   0.000000000000000E+00   0.000000000000000E+00
   0.000000000000000E+00   0.000000000000000E+00   0.000000000000000E+00
   0.000000000000000E+00   0.000000000000000E+00   0.000000000000000E+00
   0.000000000000000E+00   0.000000000000000E+00   0.000000000000000E+00
   0.000000000000000E+00   0.000000000000000E+00   0.000000000000000E+00
   0.000000000000000E+00   0.000000000000000E+00   0.000000000000000E+00
   0.000000000000000E+00   0.000000000000000E+00   0.000000000000000E+00
   0.000000000000000E+00   0.000000000000000E+00   0.000000000000000E+00
   0.000000000000000E+00   0.000000000000000E+00   0.000000000000000E+00
   0.000000000000000E+00   0.000000000000000E+00   0.000000000000000E+00
   0.000000000000000E+00   0.000000000000000E+00   0.000000000000000E+00
   0.000000000000000E+00   0.000000000000000E+00   0.000000000000000E+00
   0.000000000000000E+00   0.000000000000000E+00   0.000000000000000E+00
   0.000000000000000E+00   0.000000000000000E+00   0.000000000000000E+00
   0.000000000000000E+00   0.000000000000000E+00   0.000000000000000E+00
   0.000000000000000E+00   0.000000000000000E+00   0.000000000000000E+00
   0.000000000000000E+00   0.000000000000000E+00   0.000000000000000E+00
   0.000000000000000E+00   0.000000000000000E+00   0.000000000000000E+00
   0.000000000000000E+00   0.000000000000000E+00   0.000000000000000E+00
   0.000000000000000E+00   0.000000000000000E+00   0.000000000000000E+00
   0.000000000000000E+00   0.000000000000000E+00   0.000000000000000E+00
   0.000000000000000E+00   0.000000000000000E+00   0.000000000000000E+00
   0.000000000000000E+00   0.000000000000000E+00   0.000000000000000E+00
   0.000000000000000E+00   0.000000000000000E+00   0.000000000000000E+00
   0.000000000000000E+00   0.000000000000000E+00   0.000000000000000E+00
   0.000000000000000E+00   0.000000000000000E+00   0.000000000000000E+00
   0.000000000000000E+00   0.000000000000000E+00   0.000000000000000E+00
   0.000000000000000E+00   0.000000000000000E+00   0.000000000000000E+00
   0.000000000000000E+00   0.000000000000000E+00   0.000000000000000E+00
   0.000000000000000E+00   0.000000000000000E+00   0.000000000000000E+00
   0.000000000000000E+00   0.000000000000000E+00   0.000000000000000E+00
   0.000000000000000E+00   0.000000000000000E+00   0.000000000000000E+00
   0.000000000000000E+00   0.000000000000000E+00   0.000000000000000E+00
   0.000000000000000E+00   0.000000000000000E+00   0.000000000000000E+00
   0.000000000000000E+00   0.000000000000000E+00   0.000000000000000E+00
   0.000000000000000E+00   0.000000000000000E+00   0.000000000000000E+00
   0.000000000000000E+00   0.000000000000000E+00   0.000000000000000E+00
   0.000000000000000E+00   0.000000000000000E+00   0.000000000000000E+00
   0.000000000000000E+00   0.000000000000000E+00   0.000000000000000E+00
   0.000000000000000E+00   0.000000000000000E+00   0.000000000000000E+00
   0.000000000000000E+00   0.000000000000000E+00   0.000000000000000E+00
   0.000000000000000E+00   0.000000000000000E+00   0.000000000000000E+00
   0.000000000000000E+00   0.000000000000000E+00   0.000000000000000E+00
   0.000000000000000E+00   0.000000000000000E+00   0.000000000000000E+00
   0.000000000000000E+00   0.000000000000000E+00   0.000000000000000E+00
   0.000000000000000E+00   0.000000000000000E+00   0.000000000000000E+00
   0.000000000000000E+00   0.000000000000000E+00   0.000000000000000E+00
   0.000000000000000E+00   0.000000000000000E+00   0.000000000000000E+00
   0.000000000000000E+00   0.000000000000000E+00   0.000000000000000E+00
   0.000000000000000E+00   0.000000000000000E+00   0.000000000000000E+00
   0.000000000000000E+00   0.000000000000000E+00   0.000000000000000E+00
   0.000000000000000E+00   0.000000000000000E+00   0.000000000000000E+00
   0.000000000000000E+00   0.000000000000000E+00   0.000000000000000E+00
   0.000000000000000E+00   0.000000000000000E+00   0.000000000000000E+00
   0.000000000000000E+00   0.000000000000000E+00   0.000000000000000E+00
   0.000000000000000E+00   0.000000000000000E+00   0.000000000000000E+00
   0.000000000000000E+00   0.000000000000000E+00   0.000000000000000E+00
   0.000000000000000E+00   0.000000000000000E+00   0.000000000000000E+00
   0.000000000000000E+00   0.000000000000000E+00   0.000000000000000E+00
   0.000000000000000E+00   0.000000000000000E+00   0.000000000000000E+00
   0.000000000000000E+00   0.000000000000000E+00   0.000000000000000E+00
   0.000000000000000E+00   0.000000000000000E+00   0.000000000000000E+00
   0.000000000000000E+00   0.000000000000000E+00   0.000000000000000E+00
   0.000000000000000E+00   0.000000000000000E+00   0.000000000000000E+00
   0.000000000000000E+00   0.000000000000000E+00   0.000000000000000E+00
   0.000000000000000E+00   0.000000000000000E+00   0.000000000000000E+00
   0.000000000000000E+00   0.000000000000000E+00   0.000000000000000E+00
   0.000000000000000E+00   0.000000000000000E+00   0.000000000000000E+00
   0.000000000000000E+00   0.000000000000000E+00   0.000000000000000E+00
   0.000000000000000E+00   0.000000000000000E+00   0.000000000000000E+00
   0.000000000000000E+00   0.000000000000000E+00   0.000000000000000E+00
   0.000000000000000E+00   0.000000000000000E+00   0.000000000000000E+00
   0.000000000000000E+00   0.000000000000000E+00   0.000000000000000E+00
   0.000000000000000E+00   0.000000000000000E+00   0.000000000000000E+00
   0.000000000000000E+00   0.000000000000000E+00   0.000000000000000E+00
   0.000000000000000E+00   0.000000000000000E+00   0.000000000000000E+00
   0.000000000000000E+00   0.000000000000000E+00   0.000000000000000E+00
   0.000000000000000E+00   0.000000000000000E+00   0.000000000000000E+00
   0.000000000000000E+00   0.000000000000000E+00   0.000000000000000E+00
   0.000000000000000E+00   0.000000000000000E+00   0.000000000000000E+00
   0.000000000000000E+00   0.000000000000000E+00   0.000000000000000E+00
   0.000000000000000E+00   0.000000000000000E+00   0.000000000000000E+00
   0.000000000000000E+00   0.000000000000000E+00   0.000000000000000E+00
   0.000000000000000E+00   0.000000000000000E+00   0.000000000000000E+00
   0.000000000000000E+00   0.000000000000000E+00   0.000000000000000E+00
   0.000000000000000E+00   0.000000000000000E+00   0.000000000000000E+00
   0.000000000000000E+00   0.000000000000000E+00   0.000000000000000E+00
   0.000000000000000E+00   0.000000000000000E+00   0.000000000000000E+00
   0.000000000000000E+00   0.000000000000000E+00   0.000000000000000E+00
   0.000000000000000E+00   0.000000000000000E+00   0.000000000000000E+00
   0.000000000000000E+00   0.000000000000000E+00   0.000000000000000E+00
   0.000000000000000E+00   0.000000000000000E+00   0.000000000000000E+00
      </PP_QIJL.4.4.0>
      <PP_QIJL.4.4.2 first_index="4" second_index="4" composite_index="10" angular_momentum="2" size="1095">
   2.093847020580333E-15   2.201200848518405E-15   2.314058824568383E-15
   2.432703152411573E-15   2.557430504619345E-15   2.688552764488780E-15
   2.826397805913102E-15   2.971310313236888E-15   3.123652643146105E-15
   3.283805730748270E-15   3.452170042108180E-15   3.629166575621289E-15
   3.815237914728527E-15   4.010849334604932E-15   4.216489965589484E-15
   4.432674016265062E-15   4.659942059247202E-15   4.898862382896537E-15
   5.150032412334970E-15   5.414080203318994E-15   5.691666012705289E-15
   5.983483949435954E-15   6.290263710171437E-15   6.612772403911239E-15
   6.951816470164944E-15   7.308243695469714E-15   7.682945333297058E-15
   8.076858332649304E-15   8.490967680918634E-15   8.926308866867116E-15
   9.383970469886063E-15   9.865096882009793E-15   1.037089116948970E-14
   1.090261808108439E-14   1.146160721058811E-14   1.204925632150505E-14
   1.266703484218361E-14   1.331648754014964E-14   1.399923838482677E-14
   1.471699460830251E-14   1.547155097429388E-14   1.626479426598772E-14
   1.709870800397710E-14   1.797537740609138E-14   1.889699460152216E-14
   1.986586411228236E-14   2.088440861570613E-14   2.195517500239780E-14
   2.308084074477827E-14   2.426422059215378E-14   2.550827360904698E-14
   2.681611057439160E-14   2.819100176009089E-14   2.963638510839099E-14
   3.115587482851717E-14   3.275327043406754E-14   3.443256624376427E-14
   3.619796136931779E-14   3.805387021537882E-14   4.000493351783477E-14
   4.205602994804928E-14   4.421228831206470E-14   4.647910037526935E-14
   4.886213434459864E-14   5.136734904198324E-14   5.400100880448286E-14
   5.676969914836651E-14   5.968034323630553E-14   6.274021918885602E-14
   6.595697828351986E-14   6.933866408688763E-14   7.289373256770796E-14
   7.663107324117340E-14   8.056003139729441E-14   8.469043146894658E-14
   8.903260159801750E-14   9.359739946108745E-14   9.839623941921743E-14
   1.034411210597332E-13   1.087446592013768E-13   1.143201154378481E-13
   1.201814312986188E-13   1.263432631099317E-13   1.328210186431574E-13
   1.396308956421502E-13   1.467899223259353E-13   1.543159999680113E-13
   1.622279476587332E-13   1.705455493627059E-13   1.792896033888574E-13
   1.884819743968855E-13   1.981456480701287E-13   2.083047885915657E-13
   2.189847990666630E-13   2.302123850441618E-13   2.420156212936287E-13
   2.544240220067607E-13   2.674686145979730E-13   2.811820172888102E-13
   2.955985206701876E-13   3.107541734463925E-13   3.266868725752695E-13
   3.434364580299685E-13   3.610448124192140E-13   3.795559657152014E-13
   3.990162053509722E-13   4.194741919625922E-13   4.409810810655276E-13
   4.635906509694752E-13   4.873594372515041E-13   5.123468741237368E-13
   5.386154430490884E-13   5.662308289766532E-13   5.952620845874133E-13
   6.257818029609685E-13   6.578662990950192E-13   6.915958007315174E-13
   7.270546489666268E-13   7.643315091461144E-13   8.035195925735310E-13
   8.447168895855264E-13   8.880264145771426E-13   9.335564635897294E-13
   9.814208851056027E-13   1.031739364726558E-12   1.084637724448040E-12
   1.140248237277353E-12   1.198709957982572E-12   1.260169070799185E-12
   1.324779254963924E-12   1.392702068989749E-12   1.464107354642906E-12
   1.539173661632162E-12   1.618088694072141E-12   1.701049779837165E-12
   1.788264363979120E-12   1.879950527443240E-12   1.976337532378747E-12
   2.077666395407913E-12   2.184190490287020E-12   2.296176181466036E-12
   2.413903490131346E-12   2.537666794396846E-12   2.667775565394229E-12
   2.804555141103068E-12   2.948347539855513E-12   3.099512315549870E-12
   3.258427456711393E-12   3.425490331648353E-12   3.601118682066779E-12
   3.785751667628182E-12   3.979850964062334E-12   4.183901917580691E-12
   4.398414758477117E-12   4.623925876950429E-12   4.860999164338732E-12
   5.110227423119470E-12   5.372233849200597E-12   5.647673590209299E-12
   5.937235383674738E-12   6.241643279200730E-12   6.561658448934861E-12
   6.898081090860699E-12   7.251752429672222E-12   7.623556820233649E-12
   8.014423958883604E-12   8.425331208113890E-12   8.857306040434116E-12
   9.311428607534012E-12   9.788834441166878E-12   1.029071729250704E-11
   1.081833211708206E-11   1.137299821274158E-11   1.195610251851029E-11
   1.256910308257301E-11   1.321353270806227E-11   1.389100278576641E-11
   1.460320732333861E-11   1.535192718108383E-11   1.613903452491339E-11
   1.696649750760091E-11   1.783638519004623E-11   1.875087271484963E-11
   1.971224674513444E-11   2.072291118221586E-11   2.178539317641139E-11
   2.290234944602467E-11   2.407657292029845E-11   2.531099972294954E-11
   2.660871651374561E-11   2.797296820647876E-11   2.940716608263683E-11
   3.091489632105450E-11   3.249992896487491E-11   3.416622734824002E-11
   3.591795800627805E-11   3.775950109316973E-11   3.969546133433637E-11
   4.173067954013720E-11   4.387024470986244E-11   4.611950675628207E-11
   4.848408988257182E-11   5.096990664505351E-11   5.358317273691704E-11
   5.633042252988406E-11   5.921852541266817E-11   6.225470296708909E-11
   6.544654702477524E-11   6.880203864960773E-11   7.232956809336309E-11
   7.603795577444350E-11   7.993647433215546E-11   8.403487181166345E-11
   8.834339603759518E-11   9.287282023723226E-11   9.763446997734368E-11
   1.026402514820200E-10   1.079026814022899E-10   1.134349181119616E-10
   1.192507946079242E-10   1.253648530971596E-10   1.317923813569506E-10
   1.385494509591660E-10   1.456529574542059E-10   1.531206626150608E-10
   1.609712388470877E-10   1.692243158745522E-10   1.779005298206251E-10
   1.870215748035545E-10   1.966102571779981E-10   2.066905525571056E-10
   2.172876657579298E-10   2.284280938199956E-10   2.401396922545932E-10
   2.524517446904079E-10   2.653950360895748E-10   2.790019297172296E-10
   2.933064480569226E-10   3.083443578742090E-10   3.241532596410490E-10
   3.407726815445425E-10   3.582441783150493E-10   3.766114351206852E-10
   3.959203767879524E-10   4.162192826215073E-10   4.375589071100797E-10
   4.599926068202905E-10   4.835764737955413E-10   5.083694757934445E-10
   5.344336037123347E-10   5.618340265753563E-10   5.906392544595539E-10
   6.209213097771852E-10   6.527559073374120E-10   6.862226436384223E-10
   7.214051958631157E-10   7.583915310757579E-10   7.972741261424458E-10
   8.381501989250951E-10   8.811219513267727E-10   9.262968247958246E-10
   9.737877689274228E-10   1.023713523833804E-09   1.076198916988963E-09
   1.131375175289667E-09   1.189380253112679E-09   1.250359177188114E-09
   1.314464409150754E-09   1.381856226675431E-09   1.452703124148929E-09
   1.527182233879698E-09   1.605479768898026E-09   1.687791488453132E-09
   1.774323187370489E-09   1.865291210492209E-09   1.960922993485932E-09
   2.061457631373705E-09   2.167146476201326E-09   2.278253765341669E-09
   2.395057282001866E-09   2.517849049584642E-09   2.646936061638829E-09
   2.782641049222725E-09   2.925303287597622E-09   3.075279444266928E-09
   3.232944470600066E-09   3.398692538881510E-09   3.572938027027409E-09
   3.756116554597389E-09   3.948686074742834E-09   4.151128011661283E-09
   4.363948471858825E-09   4.587679501115709E-09   4.822880424115979E-09
   5.070139231747006E-09   5.330074056543666E-09   5.603334719098199E-09
   5.890604347890129E-09   6.192601088138239E-09   6.510079895961085E-09
   6.843834427945968E-09   7.194699019526449E-09   7.563550775635259E-09
   7.951311758339220E-09   8.358951288847650E-09   8.787488382160717E-09
   9.237994276362685E-09   9.711595122070230E-09   1.020947478870735E-08
   1.073287782897684E-08   1.128311258571533E-08   1.186155446363068E-08
   1.246964934423327E-08   1.310891725568681E-08   1.378095607526567E-08
   1.448744564207242E-08   1.523015184811614E-08   1.601093112141835E-08
   1.683173498766370E-08   1.769461503307434E-08   1.860172799686264E-08
   1.955534111562613E-08   2.055783785516095E-08   2.161172379586633E-08
   2.271963295815310E-08   2.388433434653140E-08   2.510873885749535E-08
   2.639590657796617E-08   2.774905440776577E-08   2.917156408468079E-08
   3.066699067858703E-08   3.223907139647724E-08   3.389173498597453E-08
   3.562911151726316E-08   3.745554265949448E-08   3.937559259832521E-08
   4.139405938194239E-08   4.351598689424349E-08   4.574667747100448E-08
   4.809170518221867E-08   5.055692960892152E-08   5.314851064246164E-08
   5.587292375260304E-08   5.873697617337791E-08   6.174782390921056E-08
   6.491298960692544E-08   6.824038130476440E-08   7.173831217533578E-08
   7.541552131614434E-08   7.928119544985847E-08   8.334499198945797E-08
   8.761706311005478E-08   9.210808087234731E-08   9.682926423843662E-08
   1.017924067032970E-07   1.070099058936782E-07   1.124947945151271E-07
   1.182607726671165E-07   1.243222423597430E-07   1.306943430596394E-07
   1.373929897353211E-07   1.444349124205953E-07   1.518376979597519E-07
   1.596198337636488E-07   1.678007541367104E-07   1.764008884848284E-07
   1.854417124395309E-07   1.949458012737372E-07   2.049368861535290E-07
   2.154399135170186E-07   2.264811068561070E-07   2.380880324614444E-07
   2.502896678245553E-07   2.631164740508059E-07   2.766004715946087E-07
   2.907753200977383E-07   3.056764021739156E-07   3.213409117111535E-07
   3.378079462515847E-07   3.551186045404964E-07   3.733160888024563E-07
   3.924458122035284E-07   4.125555120963071E-07   4.336953687088825E-07
   4.559181299609708E-07   4.792792430280679E-07   5.038369919272911E-07
   5.296526427926935E-07   5.567905962190621E-07   5.853185472909258E-07
   6.153076541582454E-07   6.468327148493550E-07   6.799723532676376E-07
   7.148092146374429E-07   7.514301708956598E-07   7.899265365753455E-07
   8.303942957809295E-07   8.729343405393613E-07   9.176527214720485E-07
   9.646609110834133E-07   1.014076080689961E-06   1.066021391187464E-06
   1.120626298828715E-06   1.178026876454542E-06   1.238366151096946E-06
   1.301794458905122E-06   1.368469817881551E-06   1.438558319788062E-06
   1.512234541857633E-06   1.589681979623776E-06   1.671093501506648E-06
   1.756671826764332E-06   1.846630027492600E-06   1.941192056345935E-06
   2.040593300983592E-06   2.145081166711620E-06   2.254915688452594E-06
   2.370370174296034E-06   2.491731881312028E-06   2.619302725757668E-06
   2.753400029245630E-06   2.894357303043651E-06   3.042525071657758E-06
   3.198271738671369E-06   3.361984496060741E-06   3.534070279869939E-06
   3.714956773853330E-06   3.905093464596355E-06   4.104952749332845E-06
   4.315031100275097E-06   4.535850287628204E-06   4.767958664497622E-06
   5.011932516716337E-06   5.268377480785100E-06   5.537930033583412E-06
   5.821259057165411E-06   6.119067482390192E-06   6.432094015792840E-06
   6.761114953320783E-06   7.106946085195759E-06   7.470444697274763E-06
   7.852511672818548E-06   8.254093699989930E-06   8.676185590673553E-06
   9.119832715660483E-06   9.586133562180334E-06   1.007624241990271E-05
   1.059137220211552E-05   1.113279740762185E-05   1.170185723207558E-05
   1.229995883462753E-05   1.292858076843445E-05   1.358927658250946E-05
   1.428367860433909E-05   1.501350191098907E-05   1.578054849884211E-05
   1.658671166157716E-05   1.743398058619547E-05   1.832444517850174E-05
   1.926030112881116E-05   2.024385522964797E-05   2.127753095808967E-05
   2.236387433547508E-05   2.350556007799343E-05   2.470539805241751E-05
   2.596634005191910E-05   2.729148690728892E-05   2.868409595008948E-05
   3.014758884463009E-05   3.168555980684109E-05   3.330178422823002E-05
   3.500022772549382E-05   3.678505563491515E-05   3.866064297386591E-05
   4.063158489204434E-05   4.270270763486726E-05   4.487908004435985E-05
   4.716602562310120E-05   4.956913518768947E-05   5.209428014002858E-05
   5.474762638574102E-05   5.753564892997660E-05   6.046514718337043E-05
   6.354326101043279E-05   6.677748755661494E-05   7.017569888933053E-05
   7.374616049179858E-05   7.749755064912724E-05   8.143898076807366E-05
   8.558001667386417E-05   8.993070092952704E-05   9.450157622397913E-05
   9.930370987922473E-05   1.043487195266755E-04   1.096488000069179E-04
   1.152167515474218E-04   1.210660092777633E-04   1.272106741408772E-04
   1.336655452645213E-04   1.404461538572471E-04   1.475687986979803E-04
   1.550505832887815E-04   1.629094547452557E-04   1.711642445004078E-04
   1.798347109015222E-04   1.889415837826709E-04   1.985066110982863E-04
   2.085526077062702E-04   2.191035063936306E-04   2.301844112389786E-04
   2.418216534116517E-04   2.540428495096425E-04   2.668769625423565E-04
   2.803543656677589E-04   2.945069087977075E-04   3.093679881880875E-04
   3.249726191356155E-04   3.413575119050006E-04   3.585611510161949E-04
   3.766238780239696E-04   3.955879779261863E-04   4.154977693416557E-04
   4.363996986013681E-04   4.583424379020172E-04   4.813769876729319E-04
   5.055567833128252E-04   5.309378064552882E-04   5.575787009263492E-04
   5.855408935596831E-04   6.148887200394558E-04   6.456895559432669E-04
   6.780139531597052E-04   7.119357818591830E-04   7.475323781972131E-04
   7.848846979319166E-04   8.240774761392508E-04   8.651993932095163E-04
   9.083432473096011E-04   9.536061334958203E-04   1.001089629660078E-03
   1.050899989491973E-03   1.103148342636285E-03   1.157950902222146E-03
   1.215429179936527E-03   1.275710208809231E-03   1.338926773869711E-03
   1.405217650829172E-03   1.474727852931814E-03   1.547608886108648E-03
   1.624019012555034E-03   1.704123522839105E-03   1.788095016632266E-03
   1.876113692134671E-03   1.968367644247696E-03   2.065053171524532E-03
   2.166375091900753E-03   2.272547067182377E-03   2.383791936233872E-03
   2.500342056776168E-03   2.622439655664049E-03   2.750337187472000E-03
   2.884297701169192E-03   3.024595214614743E-03   3.171515096548165E-03
   3.325354455689177E-03   3.486422536495814E-03   3.655041121057098E-03
   3.831544936519813E-03   4.016282067364563E-03   4.209614371755119E-03
   4.411917901087609E-03   4.623583321760771E-03   4.845016338074012E-03
   5.076638115039700E-03   5.318885699764232E-03   5.572212439913587E-03
   5.837088397629307E-03   6.114000757100987E-03   6.403454223833002E-03
   6.705971413460379E-03   7.022093227778836E-03   7.352379215449051E-03
   7.697407914620332E-03   8.057777174490917E-03   8.434104452582082E-03
   8.827027084249317E-03   9.237202520688827E-03   9.665308531416917E-03
   1.011204336690906E-02   1.057812587677831E-02   1.106429557855516E-02
   1.157131267179946E-02   1.209995799193057E-02   1.265103289780730E-02
   1.322535908672138E-02   1.382377833009148E-02   1.444715212275755E-02
   1.509636123838072E-02   1.577230518305254E-02   1.647590153881070E-02
   1.720808518834926E-02   1.796980741180190E-02   1.876203484606871E-02
   1.958574829675580E-02   2.044194139240323E-02   2.133161907029629E-02
   2.225579588279284E-02   2.321549411275689E-02   2.421174168637783E-02
   2.524556987137291E-02   2.631801074833291E-02   2.743009444278014E-02
   2.858284610537062E-02   2.977728262760516E-02   3.101440908041361E-02
   3.229521486306730E-02   3.362066955005660E-02   3.499171842386040E-02
   3.640927768194685E-02   3.787422930688544E-02   3.938741558914455E-02
   4.094963329300093E-02   4.256162745701944E-02   4.422408482179150E-02
   4.593762687905577E-02   4.770280253799686E-02   4.952008040643201E-02
   5.138984068677709E-02   5.331236668915272E-02   5.528783596675544E-02
   5.731631108171145E-02   5.939773001305623E-02   6.153189622226214E-02
   6.371846839589204E-02   6.595694988948557E-02   6.824667790171526E-02
   7.058681241318270E-02   7.297632492996074E-02   7.541398707814705E-02
   7.789835910224573E-02   8.042777832716004E-02   8.300034765092497E-02
   8.561392414301702E-02   8.826610783114125E-02   9.095423076773233E-02
   9.367534647602556E-02   9.642621988435530E-02   9.920331786626248E-02
   1.020028005129887E-01   1.048205132738495E-01   1.076519801087666E-01
   1.104923978057314E-01   1.133366316240301E-01   1.161792124315685E-01
   1.190143355113475E-01   1.218358612179349E-01   1.246373176694046E-01
   1.274119056634370E-01   1.301525060079022E-01   1.328516894559471E-01
   1.355017294331772E-01   1.380946177396426E-01   1.406220834017031E-01
   1.430756148382277E-01   1.454464854915927E-01   1.477257830563832E-01
   1.499044424172386E-01   1.519732823816720E-01   1.539230462637417E-01
   1.557444463399061E-01   1.574282121591813E-01   1.589651426457015E-01
   1.603461618829713E-01   1.615623784155785E-01   1.626051478460286E-01
   1.634661384420074E-01   1.641373994031186E-01   1.646114313665510E-01
   1.648812586588725E-01   1.649405027270581E-01   1.647834561069500E-01
   1.644051562127631E-01   1.638014581583399E-01   1.629691057510942E-01
   1.619057997346168E-01   1.606102622974959E-01   1.590822968159019E-01
   1.573228417578412E-01   1.553340176496042E-01   1.531191659917774E-01
   1.506828790149953E-01   1.480310191860155E-01   1.451707274140258E-01
   1.421104189662454E-01   1.388597661813495E-01   1.354296671688261E-01
   1.318321998011913E-01   1.280805604423431E-01   1.241889870064936E-01
   1.201726661044891E-01   1.160476242030429E-01   1.118306028916583E-01
   1.075389185148774E-01   1.031903065759927E-01   9.880275144393201E-02
   9.439430198838480E-02   8.998287382015913E-02   8.558603881536769E-02
   8.122080254546798E-02   7.690337011462471E-02   7.264890071815544E-02
   6.847125098192754E-02   6.438270682864056E-02   6.039370325555625E-02
   5.651253102022948E-02   5.274502884609361E-02   4.909425941922824E-02
   4.556016720389401E-02   4.213921602263688E-02   3.882722892859039E-02
   3.562994849113896E-02   3.255536408649840E-02   2.961072091491534E-02
   2.680245135068698E-02   2.413611146961006E-02   2.161632386533296E-02
   1.924672787197582E-02   1.702993829799976E-02   1.496751374365424E-02
   1.305993551950416E-02   1.130659810498283E-02   9.705811982312962E-03
   8.254819551563375E-03   6.949824676738492E-03   5.786036230643193E-03
   4.757725798720108E-03   3.858299470621773E-03   3.080383393556735E-03
   2.415921520013353E-03   1.856283969379341E-03   1.392391367613571E-03
   1.014851466307087E-03   7.140940588769573E-04   4.805181075285270E-04
   3.046399492180607E-04   1.772426789313497E-04   8.952327585162734E-05
   3.323442514467645E-05   8.177425849381637E-07  -1.447502909189546E-05
  -1.847638240774774E-05  -1.601655145297420E-05  -1.085975786244142E-05
  -5.666756579536525E-06  -1.987161033806251E-06  -2.849016617900713E-07
   0.000000000000000E+00   0.000000000000000E+00   0.000000000000000E+00
   0.000000000000000E+00   0.000000000000000E+00   0.000000000000000E+00
   0.000000000000000E+00   0.000000000000000E+00   0.000000000000000E+00
   0.000000000000000E+00   0.000000000000000E+00   0.000000000000000E+00
   0.000000000000000E+00   0.000000000000000E+00   0.000000000000000E+00
   0.000000000000000E+00   0.000000000000000E+00   0.000000000000000E+00
   0.000000000000000E+00   0.000000000000000E+00   0.000000000000000E+00
   0.000000000000000E+00   0.000000000000000E+00   0.000000000000000E+00
   0.000000000000000E+00   0.000000000000000E+00   0.000000000000000E+00
   0.000000000000000E+00   0.000000000000000E+00   0.000000000000000E+00
   0.000000000000000E+00   0.000000000000000E+00   0.000000000000000E+00
   0.000000000000000E+00   0.000000000000000E+00   0.000000000000000E+00
   0.000000000000000E+00   0.000000000000000E+00   0.000000000000000E+00
   0.000000000000000E+00   0.000000000000000E+00   0.000000000000000E+00
   0.000000000000000E+00   0.000000000000000E+00   0.000000000000000E+00
   0.000000000000000E+00   0.000000000000000E+00   0.000000000000000E+00
   0.000000000000000E+00   0.000000000000000E+00   0.000000000000000E+00
   0.000000000000000E+00   0.000000000000000E+00   0.000000000000000E+00
   0.000000000000000E+00   0.000000000000000E+00   0.000000000000000E+00
   0.000000000000000E+00   0.000000000000000E+00   0.000000000000000E+00
   0.000000000000000E+00   0.000000000000000E+00   0.000000000000000E+00
   0.000000000000000E+00   0.000000000000000E+00   0.000000000000000E+00
   0.000000000000000E+00   0.000000000000000E+00   0.000000000000000E+00
   0.000000000000000E+00   0.000000000000000E+00   0.000000000000000E+00
   0.000000000000000E+00   0.000000000000000E+00   0.000000000000000E+00
   0.000000000000000E+00   0.000000000000000E+00   0.000000000000000E+00
   0.000000000000000E+00   0.000000000000000E+00   0.000000000000000E+00
   0.000000000000000E+00   0.000000000000000E+00   0.000000000000000E+00
   0.000000000000000E+00   0.000000000000000E+00   0.000000000000000E+00
   0.000000000000000E+00   0.000000000000000E+00   0.000000000000000E+00
   0.000000000000000E+00   0.000000000000000E+00   0.000000000000000E+00
   0.000000000000000E+00   0.000000000000000E+00   0.000000000000000E+00
   0.000000000000000E+00   0.000000000000000E+00   0.000000000000000E+00
   0.000000000000000E+00   0.000000000000000E+00   0.000000000000000E+00
   0.000000000000000E+00   0.000000000000000E+00   0.000000000000000E+00
   0.000000000000000E+00   0.000000000000000E+00   0.000000000000000E+00
   0.000000000000000E+00   0.000000000000000E+00   0.000000000000000E+00
   0.000000000000000E+00   0.000000000000000E+00   0.000000000000000E+00
   0.000000000000000E+00   0.000000000000000E+00   0.000000000000000E+00
   0.000000000000000E+00   0.000000000000000E+00   0.000000000000000E+00
   0.000000000000000E+00   0.000000000000000E+00   0.000000000000000E+00
   0.000000000000000E+00   0.000000000000000E+00   0.000000000000000E+00
   0.000000000000000E+00   0.000000000000000E+00   0.000000000000000E+00
   0.000000000000000E+00   0.000000000000000E+00   0.000000000000000E+00
   0.000000000000000E+00   0.000000000000000E+00   0.000000000000000E+00
   0.000000000000000E+00   0.000000000000000E+00   0.000000000000000E+00
   0.000000000000000E+00   0.000000000000000E+00   0.000000000000000E+00
   0.000000000000000E+00   0.000000000000000E+00   0.000000000000000E+00
   0.000000000000000E+00   0.000000000000000E+00   0.000000000000000E+00
   0.000000000000000E+00   0.000000000000000E+00   0.000000000000000E+00
   0.000000000000000E+00   0.000000000000000E+00   0.000000000000000E+00
   0.000000000000000E+00   0.000000000000000E+00   0.000000000000000E+00
   0.000000000000000E+00   0.000000000000000E+00   0.000000000000000E+00
   0.000000000000000E+00   0.000000000000000E+00   0.000000000000000E+00
   0.000000000000000E+00   0.000000000000000E+00   0.000000000000000E+00
   0.000000000000000E+00   0.000000000000000E+00   0.000000000000000E+00
   0.000000000000000E+00   0.000000000000000E+00   0.000000000000000E+00
   0.000000000000000E+00   0.000000000000000E+00   0.000000000000000E+00
   0.000000000000000E+00   0.000000000000000E+00   0.000000000000000E+00
   0.000000000000000E+00   0.000000000000000E+00   0.000000000000000E+00
   0.000000000000000E+00   0.000000000000000E+00   0.000000000000000E+00
   0.000000000000000E+00   0.000000000000000E+00   0.000000000000000E+00
   0.000000000000000E+00   0.000000000000000E+00   0.000000000000000E+00
   0.000000000000000E+00   0.000000000000000E+00   0.000000000000000E+00
   0.000000000000000E+00   0.000000000000000E+00   0.000000000000000E+00
   0.000000000000000E+00   0.000000000000000E+00   0.000000000000000E+00
   0.000000000000000E+00   0.000000000000000E+00   0.000000000000000E+00
   0.000000000000000E+00   0.000000000000000E+00   0.000000000000000E+00
   0.000000000000000E+00   0.000000000000000E+00   0.000000000000000E+00
   0.000000000000000E+00   0.000000000000000E+00   0.000000000000000E+00
   0.000000000000000E+00   0.000000000000000E+00   0.000000000000000E+00
   0.000000000000000E+00   0.000000000000000E+00   0.000000000000000E+00
   0.000000000000000E+00   0.000000000000000E+00   0.000000000000000E+00
   0.000000000000000E+00   0.000000000000000E+00   0.000000000000000E+00
   0.000000000000000E+00   0.000000000000000E+00   0.000000000000000E+00
   0.000000000000000E+00   0.000000000000000E+00   0.000000000000000E+00
   0.000000000000000E+00   0.000000000000000E+00   0.000000000000000E+00
   0.000000000000000E+00   0.000000000000000E+00   0.000000000000000E+00
   0.000000000000000E+00   0.000000000000000E+00   0.000000000000000E+00
   0.000000000000000E+00   0.000000000000000E+00   0.000000000000000E+00
   0.000000000000000E+00   0.000000000000000E+00   0.000000000000000E+00
   0.000000000000000E+00   0.000000000000000E+00   0.000000000000000E+00
   0.000000000000000E+00   0.000000000000000E+00   0.000000000000000E+00
   0.000000000000000E+00   0.000000000000000E+00   0.000000000000000E+00
   0.000000000000000E+00   0.000000000000000E+00   0.000000000000000E+00
   0.000000000000000E+00   0.000000000000000E+00   0.000000000000000E+00
   0.000000000000000E+00   0.000000000000000E+00   0.000000000000000E+00
   0.000000000000000E+00   0.000000000000000E+00   0.000000000000000E+00
   0.000000000000000E+00   0.000000000000000E+00   0.000000000000000E+00
   0.000000000000000E+00   0.000000000000000E+00   0.000000000000000E+00
   0.000000000000000E+00   0.000000000000000E+00   0.000000000000000E+00
   0.000000000000000E+00   0.000000000000000E+00   0.000000000000000E+00
   0.000000000000000E+00   0.000000000000000E+00   0.000000000000000E+00
   0.000000000000000E+00   0.000000000000000E+00   0.000000000000000E+00
   0.000000000000000E+00   0.000000000000000E+00   0.000000000000000E+00
   0.000000000000000E+00   0.000000000000000E+00   0.000000000000000E+00
   0.000000000000000E+00   0.000000000000000E+00   0.000000000000000E+00
   0.000000000000000E+00   0.000000000000000E+00   0.000000000000000E+00
   0.000000000000000E+00   0.000000000000000E+00   0.000000000000000E+00
   0.000000000000000E+00   0.000000000000000E+00   0.000000000000000E+00
   0.000000000000000E+00   0.000000000000000E+00   0.000000000000000E+00
   0.000000000000000E+00   0.000000000000000E+00   0.000000000000000E+00
   0.000000000000000E+00   0.000000000000000E+00   0.000000000000000E+00
   0.000000000000000E+00   0.000000000000000E+00   0.000000000000000E+00
   0.000000000000000E+00   0.000000000000000E+00   0.000000000000000E+00
   0.000000000000000E+00   0.000000000000000E+00   0.000000000000000E+00
   0.000000000000000E+00   0.000000000000000E+00   0.000000000000000E+00
   0.000000000000000E+00   0.000000000000000E+00   0.000000000000000E+00
   0.000000000000000E+00   0.000000000000000E+00   0.000000000000000E+00
   0.000000000000000E+00   0.000000000000000E+00   0.000000000000000E+00
   0.000000000000000E+00   0.000000000000000E+00   0.000000000000000E+00
   0.000000000000000E+00   0.000000000000000E+00   0.000000000000000E+00
   0.000000000000000E+00   0.000000000000000E+00   0.000000000000000E+00
      </PP_QIJL.4.4.2>
    </PP_AUGMENTATION>
  </PP_NONLOCAL>
  <PP_PSWFC>
    <PP_CHI.1 size="1095" index="1" label="2S" l="0" occupation="2.0000000000000000" n="1" cutoff_radius="1.0000000000000000" ultrasoft_cutoff_radius="1.3000000000000000">
  -2.421669769883277E-04  -2.452130625015969E-04  -2.482974630511505E-04
  -2.514206605807109E-04  -2.545831430961029E-04  -2.577854047415045E-04
  -2.610279458766580E-04  -2.643112731550522E-04  -2.676358996030867E-04
  -2.710023447002356E-04  -2.744111344602141E-04  -2.778628015131706E-04
  -2.813578851889109E-04  -2.848969316011684E-04  -2.884804937329367E-04
  -2.921091315228723E-04  -2.957834119527873E-04  -2.995039091362403E-04
  -3.032712044082423E-04  -3.070858864160927E-04  -3.109485512113540E-04
  -3.148598023429877E-04  -3.188202509516579E-04  -3.228305158652249E-04
  -3.268912236954360E-04  -3.310030089358355E-04  -3.351665140609051E-04
  -3.393823896264506E-04  -3.436512943712529E-04  -3.479738953199972E-04
  -3.523508678874948E-04  -3.567828959842193E-04  -3.612706721231671E-04
  -3.658148975280639E-04  -3.704162822429325E-04  -3.750755452430366E-04
  -3.797934145472220E-04  -3.845706273316711E-04  -3.894079300450863E-04
  -3.943060785253249E-04  -3.992658381174980E-04  -4.042879837935570E-04
  -4.093733002733841E-04  -4.145225821474049E-04  -4.197366340007453E-04
  -4.250162705389469E-04  -4.303623167152659E-04  -4.357756078595737E-04
  -4.412569898088766E-04  -4.468073190394802E-04  -4.524274628008121E-04
  -4.581182992509321E-04  -4.638807175937449E-04  -4.697156182179369E-04
  -4.756239128376662E-04  -4.816065246350145E-04  -4.876643884042370E-04
  -4.937984506978242E-04  -5.000096699744007E-04  -5.062990167484858E-04
  -5.126674737421351E-04  -5.191160360384924E-04  -5.256457112372720E-04
  -5.322575196121946E-04  -5.389524942704086E-04  -5.457316813139095E-04
  -5.525961400029965E-04  -5.595469429217800E-04  -5.665851761457736E-04
  -5.737119394115943E-04  -5.809283462887945E-04  -5.882355243538586E-04
  -5.956346153663862E-04  -6.031267754474901E-04  -6.107131752604440E-04
  -6.183950001935938E-04  -6.261734505455765E-04  -6.340497417128649E-04
  -6.420251043796741E-04  -6.501007847102552E-04  -6.582780445436062E-04
  -6.665581615906338E-04  -6.749424296337958E-04  -6.834321587292517E-04
  -6.920286754115609E-04  -7.007333229009481E-04  -7.095474613131834E-04
  -7.184724678720964E-04  -7.275097371247662E-04  -7.366606811594213E-04
  -7.459267298260703E-04  -7.553093309599174E-04  -7.648099506075832E-04
  -7.744300732561727E-04  -7.841712020652248E-04  -7.940348591015738E-04
  -8.040225855771749E-04  -8.141359420899111E-04  -8.243765088674346E-04
  -8.347458860140764E-04  -8.452456937608525E-04  -8.558775727186273E-04
  -8.666431841344509E-04  -8.775442101511250E-04  -8.885823540700357E-04
  -8.997593406172842E-04  -9.110769162131743E-04  -9.225368492450810E-04
  -9.341409303437586E-04  -9.458909726631205E-04  -9.577888121635336E-04
  -9.698363078986829E-04  -9.820353423060423E-04  -9.943878215009944E-04
  -1.006895675574658E-03  -1.019560858895451E-03  -1.032385350414453E-03
  -1.045371153974610E-03  -1.058520298623820E-03  -1.071834838931966E-03
  -1.085316855311929E-03  -1.098968454344641E-03  -1.112791769108226E-03
  -1.126788959511284E-03  -1.140962212630361E-03  -1.155313743051666E-03
  -1.169845793217085E-03  -1.184560633774549E-03  -1.199460563932807E-03
  -1.214547911820664E-03  -1.229825034850723E-03  -1.245294320087727E-03
  -1.260958184621509E-03  -1.276819075944644E-03  -1.292879472334858E-03
  -1.309141883242225E-03  -1.325608849681252E-03  -1.342282944627891E-03
  -1.359166773421538E-03  -1.376262974172096E-03  -1.393574218172149E-03
  -1.411103210314329E-03  -1.428852689513919E-03  -1.446825429136785E-03
  -1.465024237432683E-03  -1.483451957974009E-03  -1.502111470100079E-03
  -1.521005689366987E-03  -1.540137568003124E-03  -1.559510095370430E-03
  -1.579126298431430E-03  -1.598989242222167E-03  -1.619102030331061E-03
  -1.639467805383807E-03  -1.660089749534357E-03  -1.680971084962080E-03
  -1.702115074375185E-03  -1.723525021520456E-03  -1.745204271699411E-03
  -1.767156212290949E-03  -1.789384273280562E-03  -1.811891927796209E-03
  -1.834682692650930E-03  -1.857760128892274E-03  -1.881127842358648E-03
  -1.904789484242644E-03  -1.928748751661477E-03  -1.953009388234562E-03
  -1.977575184668384E-03  -2.002449979348704E-03  -2.027637658940212E-03
  -2.053142158993735E-03  -2.078967464561055E-03  -2.105117610817482E-03
  -2.131596683692246E-03  -2.158408820506795E-03  -2.185558210621161E-03
  -2.213049096088415E-03  -2.240885772317359E-03  -2.269072588743570E-03
  -2.297613949508849E-03  -2.326514314149241E-03  -2.355778198291682E-03
  -2.385410174359422E-03  -2.415414872286313E-03  -2.445796980240055E-03
  -2.476561245354576E-03  -2.507712474471574E-03  -2.539255534891423E-03
  -2.571195355133487E-03  -2.603536925705990E-03  -2.636285299885611E-03
  -2.669445594506812E-03  -2.703022990761133E-03  -2.737022735006532E-03
  -2.771450139586862E-03  -2.806310583661705E-03  -2.841609514046586E-03
  -2.877352446063768E-03  -2.913544964403757E-03  -2.950192723997599E-03
  -2.987301450900179E-03  -3.024876943184584E-03  -3.062925071847734E-03
  -3.101451781727392E-03  -3.140463092430667E-03  -3.179965099274249E-03
  -3.219963974236385E-03  -3.260465966920868E-03  -3.301477405533143E-03
  -3.343004697868620E-03  -3.385054332313490E-03  -3.427632878858055E-03
  -3.470746990122798E-03  -3.514403402397390E-03  -3.558608936692671E-03
  -3.603370499805945E-03  -3.648695085399562E-03  -3.694589775093130E-03
  -3.741061739569409E-03  -3.788118239694078E-03  -3.835766627649641E-03
  -3.884014348083481E-03  -3.932868939270409E-03  -3.982338034289805E-03
  -4.032429362217478E-03  -4.083150749332612E-03  -4.134510120339750E-03
  -4.186515499606209E-03  -4.239175012415004E-03  -4.292496886233479E-03
  -4.346489451997949E-03  -4.401161145414367E-03  -4.456520508275406E-03
  -4.512576189794043E-03  -4.569336947953881E-03  -4.626811650876454E-03
  -4.685009278205653E-03  -4.743938922509565E-03  -4.803609790699913E-03
  -4.864031205469251E-03  -4.925212606746310E-03  -4.987163553169490E-03
  -5.049893723578907E-03  -5.113412918527192E-03  -5.177731061809154E-03
  -5.242858202010740E-03  -5.308804514077357E-03  -5.375580300901898E-03
  -5.443195994932697E-03  -5.511662159801641E-03  -5.580989491972709E-03
  -5.651188822411180E-03  -5.722271118273793E-03  -5.794247484620100E-03
  -5.867129166145247E-03  -5.940927548934534E-03  -6.015654162239931E-03
  -6.091320680278880E-03  -6.167938924055668E-03  -6.245520863205577E-03
  -6.324078617862211E-03  -6.403624460548173E-03  -6.484170818089469E-03
  -6.565730273553873E-03  -6.648315568213616E-03  -6.731939603532610E-03
  -6.816615443178614E-03  -6.902356315060567E-03  -6.989175613391457E-03
  -7.077086900776979E-03  -7.166103910330448E-03  -7.256240547814064E-03
  -7.347510893807047E-03  -7.439929205900921E-03  -7.533509920922212E-03
  -7.628267657183038E-03  -7.724217216759780E-03  -7.821373587800311E-03
  -7.919751946860070E-03  -8.019367661267329E-03  -8.120236291518075E-03
  -8.222373593700776E-03  -8.325795521951561E-03  -8.430518230939953E-03
  -8.536558078385765E-03  -8.643931627607408E-03  -8.752655650102019E-03
  -8.862747128157841E-03  -8.974223257499234E-03  -9.087101449964653E-03
  -9.201399336218136E-03  -9.317134768494563E-03  -9.434325823379195E-03
  -9.552990804621950E-03  -9.673148245986635E-03  -9.794816914135900E-03
  -9.918015811551974E-03  -1.004276417949395E-02  -1.016908150099186E-02
  -1.029698750387804E-02  -1.042650216385632E-02  -1.055764570760933E-02
  -1.069043861594459E-02  -1.082490162697974E-02  -1.096105573936731E-02
  -1.109892221555975E-02  -1.123852258511494E-02  -1.137987864804287E-02
  -1.152301247819387E-02  -1.166794642668898E-02  -1.181470312539296E-02
  -1.196330549043026E-02  -1.211377672574483E-02  -1.226614032670397E-02
  -1.242042008374700E-02  -1.257664008607901E-02  -1.273482472541057E-02
  -1.289499869974364E-02  -1.305718701720451E-02  -1.322141499992401E-02
  -1.338770828796590E-02  -1.355609284330384E-02  -1.372659495384741E-02
  -1.389924123751805E-02  -1.407405864637535E-02  -1.425107447079408E-02
  -1.443031634369300E-02  -1.461181224481580E-02  -1.479559050506475E-02
  -1.498167981088784E-02  -1.517010920871992E-02  -1.536090810947852E-02
  -1.555410629311496E-02  -1.574973391322152E-02  -1.594782150169512E-02
  -1.614839997345834E-02  -1.635150063123842E-02  -1.655715517040476E-02
  -1.676539568386590E-02  -1.697625466702645E-02  -1.718976502280453E-02
  -1.740596006671086E-02  -1.762487353198975E-02  -1.784653957482295E-02
  -1.807099277959715E-02  -1.829826816423546E-02  -1.852840118559413E-02
  -1.876142774492490E-02  -1.899738419340369E-02  -1.923630733772673E-02
  -1.947823444577445E-02  -1.972320325234431E-02  -1.997125196495289E-02
  -2.022241926970847E-02  -2.047674433725460E-02  -2.073426682878538E-02
  -2.099502690213361E-02  -2.125906521793221E-02  -2.152642294584982E-02
  -2.179714177090180E-02  -2.207126389983649E-02  -2.234883206759873E-02
  -2.262988954387059E-02  -2.291448013969050E-02  -2.320264821415166E-02
  -2.349443868118012E-02  -2.378989701639407E-02  -2.408906926404467E-02
  -2.439200204403949E-02  -2.469874255904942E-02  -2.500933860169967E-02
  -2.532383856184596E-02  -2.564229143393706E-02  -2.596474682446357E-02
  -2.629125495949516E-02  -2.662186669230568E-02  -2.695663351108860E-02
  -2.729560754676227E-02  -2.763884158086648E-02  -2.798638905355157E-02
  -2.833830407166002E-02  -2.869464141690263E-02  -2.905545655412886E-02
  -2.942080563969337E-02  -2.979074552991877E-02  -3.016533378965632E-02
  -3.054462870094443E-02  -3.092868927176690E-02  -3.131757524491081E-02
  -3.171134710692586E-02  -3.211006609718522E-02  -3.251379421704930E-02
  -3.292259423913329E-02  -3.333652971667859E-02  -3.375566499303017E-02
  -3.418006521121973E-02  -3.460979632365616E-02  -3.504492510192326E-02
  -3.548551914668684E-02  -3.593164689771058E-02  -3.638337764398281E-02
  -3.684078153395358E-02  -3.730392958588424E-02  -3.777289369830920E-02
  -3.824774666061115E-02  -3.872856216371028E-02  -3.921541481086820E-02
  -3.970838012860743E-02  -4.020753457774702E-02  -4.071295556455470E-02
  -4.122472145201695E-02  -4.174291157122655E-02  -4.226760623288883E-02
  -4.279888673894750E-02  -4.333683539432953E-02  -4.388153551881074E-02
  -4.443307145900141E-02  -4.499152860045362E-02  -4.555699337988964E-02
  -4.612955329755212E-02  -4.670929692967664E-02  -4.729631394108618E-02
  -4.789069509790874E-02  -4.849253228041733E-02  -4.910191849599314E-02
  -4.971894789221179E-02  -5.034371577005213E-02  -5.097631859722836E-02
  -5.161685402164518E-02  -5.226542088497531E-02  -5.292211923635997E-02
  -5.358705034623110E-02  -5.426031672025577E-02  -5.494202211340180E-02
  -5.563227154412437E-02  -5.633117130867280E-02  -5.703882899551714E-02
  -5.775535349989326E-02  -5.848085503846594E-02  -5.921544516410875E-02
  -5.995923678080040E-02  -6.071234415863461E-02  -6.147488294894423E-02
  -6.224697019953666E-02  -6.302872437003977E-02  -6.382026534735655E-02
  -6.462171446122621E-02  -6.543319449989023E-02  -6.625482972586086E-02
  -6.708674589179064E-02  -6.792907025643889E-02  -6.878193160073381E-02
  -6.964546024392754E-02  -7.051978805984040E-02  -7.140504849319078E-02
  -7.230137657600962E-02  -7.320890894413228E-02  -7.412778385376750E-02
  -7.505814119813699E-02  -7.600012252418252E-02  -7.695387104933618E-02
  -7.791953167834706E-02  -7.889725102016276E-02  -7.988717740485739E-02
  -8.088946090060103E-02  -8.190425333066638E-02  -8.293170829046365E-02
  -8.397198116460032E-02  -8.502522914395579E-02  -8.609161124276543E-02
  -8.717128831570636E-02  -8.826442307497571E-02  -8.937118010735470E-02
  -9.049172589124792E-02  -9.162622881368968E-02  -9.277485918730771E-02
  -9.393778926723324E-02  -9.511519326794739E-02  -9.630724738005240E-02
  -9.751412978695599E-02  -9.873602068145713E-02  -9.997310228221981E-02
  -1.012255588501206E-01  -1.024935767044583E-01  -1.037773442390086E-01
  -1.050770519379100E-01  -1.063928923913638E-01  -1.077250603111319E-01
  -1.090737525458156E-01  -1.104391680958969E-01  -1.118215081285217E-01
  -1.132209759920069E-01  -1.146377772300504E-01  -1.160721195956212E-01
  -1.175242130645085E-01  -1.189942698485051E-01  -1.204825044082020E-01
  -1.219891334653664E-01  -1.235143760148793E-01  -1.250584533362020E-01
  -1.266215890043465E-01  -1.282040089003139E-01  -1.298059412209765E-01
  -1.314276164883650E-01  -1.330692675583306E-01  -1.347311296285446E-01
  -1.364134402457998E-01  -1.381164393125762E-01  -1.398403690928279E-01
  -1.415854742169545E-01  -1.433520016859107E-01  -1.451402008744102E-01
  -1.469503235331771E-01  -1.487826237901985E-01  -1.506373581509251E-01
  -1.525147854973697E-01  -1.544151670860491E-01  -1.563387665447112E-01
  -1.582858498677925E-01  -1.602566854105404E-01  -1.622515438817432E-01
  -1.642706983349967E-01  -1.663144241584420E-01  -1.683829990629056E-01
  -1.704767030683643E-01  -1.725958184886633E-01  -1.747406299144065E-01
  -1.769114241939365E-01  -1.791084904123224E-01  -1.813321198682643E-01
  -1.835826060488266E-01  -1.858602446019023E-01  -1.881653333063114E-01
  -1.904981720394352E-01  -1.928590627422770E-01  -1.952483093818408E-01
  -1.976662179107181E-01  -2.001130962237640E-01  -2.025892541117396E-01
  -2.050950032118001E-01  -2.076306569546948E-01  -2.101965305085458E-01
  -2.127929407190678E-01  -2.154202060460832E-01  -2.180786464961857E-01
  -2.207685835513979E-01  -2.234903400936612E-01  -2.262442403249998E-01
  -2.290306096831819E-01  -2.318497747527050E-01  -2.347020631709282E-01
  -2.375878035291548E-01  -2.405073252684801E-01  -2.434609585701996E-01
  -2.464490342405715E-01  -2.494718835897230E-01  -2.525298383044758E-01
  -2.556232303148692E-01  -2.587523916541427E-01  -2.619176543119369E-01
  -2.651193500804676E-01  -2.683578103934112E-01  -2.716333661572427E-01
  -2.749463475747501E-01  -2.782970839604437E-01  -2.816859035475795E-01
  -2.851131332864899E-01  -2.885790986339234E-01  -2.920841233330774E-01
  -2.956285291839983E-01  -2.992126358040229E-01  -3.028367603779111E-01
  -3.065012173973328E-01  -3.102063183893382E-01  -3.139523716334485E-01
  -3.177396818669878E-01  -3.215685499782716E-01  -3.254392726872483E-01
  -3.293521422131951E-01  -3.333074459290491E-01  -3.373054660019463E-01
  -3.413464790195368E-01  -3.454307556016285E-01  -3.495585599967131E-01
  -3.537301496629002E-01  -3.579457748328009E-01  -3.622056780618652E-01
  -3.665100937597011E-01  -3.708592477038651E-01  -3.752533565356196E-01
  -3.796926272371518E-01  -3.841772565897246E-01  -3.887074306122362E-01
  -3.932833239796566E-01  -3.979050994207937E-01  -4.025729070948576E-01
  -4.072868839462563E-01  -4.120471530370916E-01  -4.168538228567762E-01
  -4.217069866082345E-01  -4.266067214701244E-01  -4.315530878345159E-01
  -4.365461285194741E-01  -4.415858679560042E-01  -4.466723113487979E-01
  -4.518054438102436E-01  -4.569852294671735E-01  -4.622116105398137E-01
  -4.674845063924387E-01  -4.728038125552216E-01  -4.781693997168054E-01
  -4.835811126871326E-01  -4.890387693300948E-01  -4.945421594655863E-01
  -5.000910437405780E-01  -5.056851524688550E-01  -5.113241844390972E-01
  -5.170078056910226E-01  -5.227356482593561E-01  -5.285073088854370E-01
  -5.343223476963219E-01  -5.401802868512989E-01  -5.460806091558041E-01
  -5.520227566427823E-01  -5.580061291216190E-01  -5.640300826948480E-01
  -5.700939282429138E-01  -5.761969298773912E-01  -5.823383033631336E-01
  -5.885172145099454E-01  -5.947327775344975E-01  -6.009840533933071E-01
  -6.072700480877777E-01  -6.135897109423931E-01  -6.199419328573448E-01
  -6.263255445370295E-01  -6.327393146960207E-01  -6.391819482443215E-01
  -6.456520844538806E-01  -6.521482951085917E-01  -6.586690826402013E-01
  -6.652128782527755E-01  -6.717780400386836E-01  -6.783628510892307E-01
  -6.849655176034366E-01  -6.915841669987048E-01  -6.982168460274368E-01
  -7.048615189039983E-01  -7.115160654467557E-01  -7.181782792402653E-01
  -7.248458658231027E-01  -7.315164409071516E-01  -7.381875286346364E-01
  -7.448565598795678E-01  -7.515208706007329E-01  -7.581777002538207E-01
  -7.648241902707026E-01  -7.714573826144717E-01  -7.780742184192246E-01
  -7.846715367242051E-01  -7.912460733123884E-01  -7.977944596641480E-01
  -8.043132220372312E-01  -8.107987806847821E-01  -8.172474492237841E-01
  -8.236554341668256E-01  -8.300188346307017E-01  -8.363336422359432E-01
  -8.425957412119457E-01  -8.488009087229248E-01  -8.549448154305425E-01
  -8.610230263095288E-01  -8.670310017332142E-01  -8.729640988463567E-01
  -8.788175732431289E-01  -8.845865809685839E-01  -8.902661808622779E-01
  -8.958513372631035E-01  -9.013369230946221E-01  -9.067177233504129E-01
  -9.119884389990809E-01  -9.171436913285458E-01  -9.221780267492267E-01
  -9.270859220754606E-01  -9.318617903042277E-01  -9.364999869097086E-01
  -9.409948166715937E-01  -9.453405410542204E-01  -9.495313861525622E-01
  -9.535615512198455E-01  -9.574252177900859E-01  -9.611165594070267E-01
  -9.646297519689723E-01  -9.679589846965534E-01  -9.710984717278467E-01
  -9.740424643421522E-01  -9.767852638102615E-01  -9.793212348652049E-01
  -9.816448197831188E-01  -9.837505530590755E-01  -9.856330766573983E-01
  -9.872871558101697E-01  -9.887076953312099E-01  -9.898897564058131E-01
  -9.908285738089458E-01  -9.915195734963185E-01  -9.919583905038668E-01
  -9.921408870815570E-01  -9.920631709771388E-01  -9.917216137744721E-01
  -9.911128691793226E-01  -9.902338911330741E-01  -9.890819516216579E-01
  -9.876546580331419E-01  -9.859499699029101E-01  -9.839662148701757E-01
  -9.817021036538793E-01  -9.791567438396906E-01  -9.763296522531635E-01
  -9.732207656769798E-01  -9.698304496529842E-01  -9.661595050922448E-01
  -9.622091723990970E-01  -9.579811327980513E-01  -9.534775065358473E-01
  -9.487008476150711E-01  -9.436541347009350E-01  -9.383407578292328E-01
  -9.327645005317448E-01  -9.269295169855376E-01  -9.208403037854618E-01
  -9.145016659349811E-01  -9.079186766497902E-01  -9.010966305722735E-01
  -8.940409900031426E-01  -8.867573237703499E-01  -8.792512383753651E-01
  -8.715283010837916E-01  -8.635939546620125E-01  -8.554534235053082E-01
  -8.471116109549485E-01  -8.385729876660952E-01  -8.298414709627112E-01
  -8.209202952030218E-01  -8.118118732795651E-01  -8.025176494926888E-01
  -7.930379441663170E-01  -7.833717905206655E-01  -7.735188597273268E-01
  -7.634861824708723E-01  -7.532828306736820E-01  -7.429179552202002E-01
  -7.324007743154991E-01  -7.217405618489972E-01  -7.109466357845979E-01
  -7.000283465808167E-01  -6.889950656834252E-01  -6.778561740846748E-01
  -6.666210500638807E-01  -6.552990506219138E-01  -6.438995170704473E-01
  -6.324317565251397E-01  -6.209050301241430E-01  -6.093285423547820E-01
  -5.977114305560554E-01  -5.860627546095523E-01  -5.743914868306040E-01
  -5.627065020712229E-01  -5.510165680461677E-01  -5.393303358916413E-01
  -5.276563309671007E-01  -5.160029439100171E-01  -5.043784219529283E-01
  -4.927908605117636E-01  -4.812481950541034E-01  -4.697581932556911E-01
  -4.583284474532264E-01  -4.469663674011853E-01  -4.356791733401099E-01
  -4.244738893835703E-01  -4.133573372307167E-01  -4.023361302110851E-01
  -3.914166676680804E-01  -3.806051296872678E-01  -3.699074721753720E-01
  -3.593294222955847E-01  -3.488764742645112E-01  -3.385538855157874E-01
  -3.283666732350702E-01  -3.183196112707839E-01  -3.084172274246327E-01
  -2.986638011255127E-01  -2.890633614900402E-01  -2.796196857724679E-01
  -2.703362982062945E-01  -2.612164692393544E-01  -2.522632151636391E-01
  -2.434792981405265E-01  -2.348672266214707E-01  -2.264292561635735E-01
  -2.181673906387568E-01  -2.100833838345524E-01  -2.021787414437685E-01
  -1.944547234395056E-01  -1.869123468311967E-01  -1.795523887964918E-01
  -1.723753901829574E-01  -1.653816593726743E-01  -1.585712765019152E-01
  -1.519440980271775E-01  -1.454997616279182E-01  -1.392376914354215E-01
  -1.331571035763003E-01  -1.272570120182163E-01  -1.215362347045025E-01
  -1.159933999634782E-01  -1.106269531773826E-01  -1.054351636950205E-01
  -1.004161319714031E-01  -9.556779691691041E-02  -9.088794343778178E-02
  -8.637421014907394E-02  -8.202409724061861E-02  -7.783497447595882E-02
  -7.380408930376493E-02  -6.992857506081707E-02  -6.620545924530356E-02
  -6.263167183893034E-02  -5.920405365615466E-02  -5.591936469877151E-02
  -5.277429249407234E-02  -4.976546039488413E-02  -4.688943581997129E-02
  -4.414273841354906E-02  -4.152184810301675E-02  -3.902321303446493E-02
  -3.664325736605101E-02  -3.437838889996186E-02  -3.222500653439223E-02
  -3.017950751776240E-02  -2.823829448826818E-02  -2.639778228280362E-02
  -2.465440450031214E-02  -2.300461980570119E-02  -2.144491796159536E-02
  -1.997182557639329E-02  -1.858191155833104E-02  -1.727179226653068E-02
  -1.603813635131974E-02  -1.487766927743969E-02  -1.378717752510838E-02
  -1.276351246525884E-02  -1.180359390663302E-02  -1.090441331375878E-02
  -1.006303669617310E-02  -9.276607170565098E-03  -8.542347198793888E-03
  -7.857560505978470E-03  -7.219633684055085E-03  -6.626037487343744E-03
  -6.074327827753957E-03  -5.562146478284825E-03  -5.087221494430726E-03
  -4.647367363986261E-03  -4.240484896549494E-03  -3.864560864746081E-03
  -3.517667409837104E-03  -3.197961224927426E-03  -2.903682529457542E-03
  -2.633153849040224E-03  -2.384778614992513E-03  -2.157039598115348E-03
  -1.948497191387919E-03  -1.757787556273590E-03  -1.583620647281779E-03
  -1.424778129297938E-03  -1.280111201985760E-03  -1.148538345285756E-03
  -1.029042999686808E-03  -9.206711945373865E-04  -8.225291371955778E-04
  -7.337807752977860E-04  -6.536453438604553E-04  -5.813949083232485E-04
  -5.163519140019696E-04  -4.578867517509385E-04  -4.054153489437125E-04
  -3.583967941738305E-04  -3.163310033594951E-04  -2.787564342134954E-04
  -2.452478553175736E-04  -2.154141753241119E-04  -1.888963371022793E-04
  -1.653652809552122E-04  -1.445199803635909E-04  -1.260855530628991E-04
  -1.098114496401432E-04  -9.546972124380855E-05  -8.285336744092053E-05
  -7.177476472937324E-05  -6.206417572388567E-05  -5.356833858133082E-05
  -4.614913581661625E-05  -3.968234128425515E-05  -3.405644376335697E-05
  -2.917154528472081E-05  -2.493833207746070E-05  -2.127711578823501E-05
  -1.811694243750759E-05  -1.539476642285550E-05  -1.305468675890266E-05
  -1.104724265026509E-05  -9.328765434806646E-06  -7.860783899459441E-06
  -6.609479958927966E-06  -5.545191702561099E-06  -4.641960846539384E-06
  -3.877121679747633E-06  -3.230928658663239E-06  -2.686219887195400E-06
  -2.228113809551569E-06  -1.843741677818914E-06  -1.522043554674690E-06
  -1.253449034151061E-06  -1.029735581473007E-06  -8.438609560932859E-07
  -6.898088263402650E-07  -5.624522867431018E-07  -4.574335290866545E-07
  -3.710580455638663E-07  -3.002018659701867E-07  -2.422304500922724E-07
  -1.949279708023869E-07  -1.564358323462822E-07  -1.251993718350476E-07
  -9.992178957024397E-08  -7.952444557269444E-08  -6.311274546782214E-08
  -4.994691874597573E-08  -3.941706647360950E-08  -3.102192395287833E-08
  -2.435084684688008E-08  -1.906858719946118E-08  -1.490247893898385E-08
  -1.163170129130535E-08  -9.078333548451377E-09  -7.062879778138697E-09
  -5.477127079948800E-09  -4.233518550855806E-09  -3.261443517296144E-09
  -2.504147319617470E-09  -1.916166101648724E-09  -1.461204869429413E-09
  -1.110388435978581E-09  -8.408248841315871E-10  -6.344299749330388E-10
  -4.769686188451586E-10  -3.572762200945265E-10  -2.666285040316189E-10
  -1.982334402726196E-10  -1.468231707853533E-10  -1.083275252295508E-10
  -7.961383208960367E-11  -5.828038290674534E-11  -4.249314101440602E-11
  -3.085716197869167E-11  -2.231576073395708E-11  -1.607176475771699E-11
  -1.152627281824951E-11  -8.231229234509050E-12  -5.852854134950517E-12
  -4.143566778487854E-12  -2.920523874140557E-12  -2.049287046680700E-12
  -1.431449331750934E-12  -9.953035291948664E-13  -6.888368985380893E-13
  -4.744966567847444E-13  -3.252970221996732E-13  -2.219377369353785E-13
  -1.506815170156825E-13  -1.017981483134350E-13  -6.842956821749239E-14
  -4.576614906927399E-14  -3.045186323598720E-14  -2.015692264680526E-14
  -1.327232548510838E-14  -8.692675620342511E-15  -5.662581124430962E-15
  -3.668600364700119E-15  -2.363640907218443E-15  -1.514354176355343E-15
  -9.647341557461548E-16  -6.110701387935098E-16  -3.848099284074164E-16
  -2.409025901650522E-16  -1.499147820117178E-16  -9.273050423075068E-17
  -5.700893644988776E-17  -3.483148363848623E-17  -2.114831972297275E-17
  -1.275910870552366E-17  -7.648401345533967E-18  -4.555034926891166E-18
  -2.694932369734686E-18  -1.583810095539333E-18  -9.245298239337414E-19
  -5.359994860578226E-19  -3.086000788604780E-19  -1.764322673428449E-19
  -1.001548433759420E-19  -5.644675856165798E-20  -3.158201490175171E-20
  -1.754020256277512E-20  -9.669031769270141E-21  -5.289859572891754E-21
  -2.871948976929481E-21  -1.547172882109343E-21  -8.269668835231780E-22
  -4.385121266537064E-22  -2.306618872406596E-22  -1.203446528235225E-22
  -6.227158313219441E-23  -3.195361756932088E-23  -1.625816308617490E-23
  -8.201588178261798E-24  -4.101593569938731E-24  -2.033237090051487E-24
  -9.989784365800334E-25  -4.864164416884365E-25  -2.346903110873090E-25
  -1.121933140342399E-25  -5.313408267702072E-26  -2.492657733253784E-26
  -1.158200046955474E-26  -5.329464034317749E-27  -2.428339618993293E-27
  -1.095487642951282E-27  -4.892414759274229E-28  -2.162726759113888E-28
  -9.462084507336452E-29  -4.096587664815835E-29  -1.754893289867273E-29
  -7.437282052364428E-30  -3.117842612346170E-30  -1.292739752196520E-30
  -5.300597557270514E-31  -2.148990277808193E-31  -8.613472481308498E-32
  -3.412666322102817E-32  -1.336342770066361E-32  -5.171140640282898E-33
  -1.977126323349633E-33  -7.467864121860668E-34  -2.786158526035777E-34
  -1.026585996876615E-34  -3.735053003429806E-35  -1.341655726310407E-35
  -4.757276475404062E-36   0.000000000000000E+00   0.000000000000000E+00
   0.000000000000000E+00   0.000000000000000E+00   0.000000000000000E+00
   0.000000000000000E+00   0.000000000000000E+00   0.000000000000000E+00
   0.000000000000000E+00   0.000000000000000E+00   0.000000000000000E+00
   0.000000000000000E+00   0.000000000000000E+00   0.000000000000000E+00
   0.000000000000000E+00   0.000000000000000E+00   0.000000000000000E+00
   0.000000000000000E+00   0.000000000000000E+00   0.000000000000000E+00
   0.000000000000000E+00   0.000000000000000E+00   0.000000000000000E+00
   0.000000000000000E+00   0.000000000000000E+00   0.000000000000000E+00
   0.000000000000000E+00   0.000000000000000E+00   0.000000000000000E+00
   0.000000000000000E+00   0.000000000000000E+00   0.000000000000000E+00
   0.000000000000000E+00   0.000000000000000E+00   0.000000000000000E+00
    </PP_CHI.1>
    <PP_CHI.2 size="1095" index="2" label="2P" l="1" occupation="4.0000000000000000" n="2" cutoff_radius="0.90000000000000002" ultrasoft_cutoff_radius="1.4500000000000000">
  -2.983227747583611E-08  -3.058748516459202E-08  -3.136181102644248E-08
  -3.215573904022030E-08  -3.296976543673355E-08  -3.380439900893145E-08
  -3.466016142991642E-08  -3.553758757900662E-08  -3.643722587605274E-08
  -3.735963862421825E-08  -3.830540236143692E-08  -3.927510822076770E-08
  -4.026936229987201E-08  -4.128878603984413E-08  -4.233401661363230E-08
  -4.340570732429198E-08  -4.450452801332163E-08  -4.563116547933498E-08
  -4.678632390733250E-08  -4.797072530883984E-08  -4.918510997318794E-08
  -5.043023693021782E-08  -5.170688442469897E-08  -5.301585040275691E-08
  -5.435795301061572E-08  -5.573403110596538E-08  -5.714494478227481E-08
  -5.859157590637821E-08  -6.007482866966995E-08  -6.159563015325326E-08
  -6.315493090739597E-08  -6.475370554565458E-08  -6.639295335403925E-08
  -6.807369891559953E-08  -6.979699275082175E-08  -7.156391197423795E-08
  -7.337556096765691E-08  -7.523307207043843E-08  -7.713760628724118E-08
  -7.909035401368850E-08  -8.109253578040312E-08  -8.314540301587816E-08
  -8.525023882865998E-08  -8.740835880933201E-08  -8.962111185280075E-08
  -9.188988100139824E-08  -9.421608430932767E-08  -9.660117572899265E-08
  -9.904664601976357E-08  -1.015540236797498E-07  -1.041248759011599E-07
  -1.067608095498463E-07  -1.094634721696475E-07  -1.122345530121559E-07
  -1.150757840925533E-07  -1.179889412721754E-07  -1.209758453684816E-07
  -1.240383632931239E-07  -1.271784092188252E-07  -1.303979457757985E-07
  -1.336989852784526E-07  -1.370835909831523E-07  -1.405538783778189E-07
  -1.441120165041768E-07  -1.477602293134735E-07  -1.515007970565186E-07
  -1.553360577089127E-07  -1.592684084323559E-07  -1.633003070729487E-07
  -1.674342736974241E-07  -1.716728921682671E-07  -1.760188117587107E-07
  -1.804747488086144E-07  -1.850434884222617E-07  -1.897278862091375E-07
  -1.945308700687730E-07  -1.994554420207743E-07  -2.045046800811781E-07
  -2.096817401863079E-07  -2.149898581653326E-07  -2.204323517627595E-07
  -2.260126227121278E-07  -2.317341588621974E-07  -2.376005363569628E-07
  -2.436154218708538E-07  -2.497825749005195E-07  -2.561058501146295E-07
  -2.625891997631607E-07  -2.692366761476754E-07  -2.760524341541337E-07
  -2.830407338498253E-07  -2.902059431460400E-07  -2.975525405281481E-07
  -3.050851178547884E-07  -3.128083832279209E-07  -3.207271639355331E-07
  -3.288464094688407E-07  -3.371711946158708E-07  -3.457067226333572E-07
  -3.544583284989324E-07  -3.634314822456497E-07  -3.726317923809173E-07
  -3.820650093919850E-07  -3.917370293401694E-07  -4.016538975460688E-07
  -4.118218123680695E-07  -4.222471290765013E-07  -4.329363638258724E-07
  -4.438961977276566E-07  -4.551334810261865E-07  -4.666552373802561E-07
  -4.784686682531158E-07  -4.905811574135945E-07  -5.030002755511726E-07
  -5.157337850078827E-07  -5.287896446299971E-07  -5.421760147425377E-07
  -5.559012622497141E-07  -5.699739658644788E-07  -5.844029214704690E-07
  -5.991971476196829E-07  -6.143658911693327E-07  -6.299186330613902E-07
  -6.458650942484436E-07  -6.622152417695666E-07  -6.789792949799961E-07
  -6.961677319385133E-07  -7.137912959565213E-07  -7.318610023129123E-07
  -7.503881451389184E-07  -7.693843044772534E-07  -7.888613535199540E-07
  -8.088314660294486E-07  -8.293071239474837E-07  -8.503011251966741E-07
  -8.718265916795460E-07  -8.938969774800591E-07  -9.165260772726577E-07
  -9.397280349445371E-07  -9.635173524358484E-07  -9.879088988037603E-07
  -1.012917919516011E-06  -1.038560045979713E-06  -1.064851305311372E-06
  -1.091808130354257E-06  -1.119447369949318E-06  -1.147786299466133E-06
  -1.176842631600454E-06  -1.206634527445054E-06  -1.237180607840869E-06
  -1.268499965015449E-06  -1.300612174516074E-06  -1.333537307444914E-06
  -1.367295943003953E-06  -1.401909181357460E-06  -1.437398656820063E-06
  -1.473786551378700E-06  -1.511095608556843E-06  -1.549349147629712E-06
  -1.588571078199333E-06  -1.628785915138542E-06  -1.670018793913315E-06
  -1.712295486292955E-06  -1.755642416457979E-06  -1.800086677515789E-06
  -1.845656048434367E-06  -1.892379011404729E-06  -1.940284769642816E-06
  -1.989403265642068E-06  -2.039765199888066E-06  -2.091402050046853E-06
  -2.144346090639105E-06  -2.198630413212232E-06  -2.254288947023184E-06
  -2.311356480244824E-06  -2.369868681709075E-06  -2.429862123200570E-06
  -2.491374302314543E-06  -2.554443665893422E-06  -2.619109634056693E-06
  -2.685412624838995E-06  -2.753394079452022E-06  -2.823096488185776E-06
  -2.894563416965587E-06  -2.967839534581365E-06  -3.042970640606091E-06
  -3.120003694021138E-06  -3.198986842566093E-06  -3.279969452831610E-06
  -3.363002141114056E-06  -3.448136805051084E-06  -3.535426656058202E-06
  -3.624926252586255E-06  -3.716691534220904E-06  -3.810779856645273E-06
  -3.907250027487524E-06  -4.006162343076048E-06  -4.107578626124884E-06
  -4.211562264373193E-06  -4.318178250202856E-06  -4.427493221258784E-06
  -4.539575502097687E-06  -4.654495146890919E-06  -4.772323983208370E-06
  -4.893135656910727E-06  -5.017005678177927E-06  -5.144011468702978E-06
  -5.274232410080177E-06  -5.407749893418342E-06  -5.544647370209879E-06
  -5.685010404487390E-06  -5.828926726300733E-06  -5.976486286547523E-06
  -6.127781313191670E-06  -6.282906368905012E-06  -6.441958410167803E-06
  -6.605036847865533E-06  -6.772243609419286E-06  -6.943683202488961E-06
  -7.119462780288956E-06  -7.299692208557070E-06  -7.484484134218714E-06
  -7.673954055788977E-06  -7.868220395556849E-06  -8.067404573596620E-06
  -8.271631083652430E-06  -8.481027570944016E-06  -8.695724911941458E-06
  -8.915857296159394E-06  -9.141562310021618E-06  -9.372981022848227E-06
  -9.610258075019594E-06  -9.853541768371502E-06  -1.010298415887853E-05
  -1.035874115168353E-05  -1.062097259853192E-05  -1.088984239767281E-05
  -1.116551859628815E-05  -1.144817349551477E-05  -1.173798375812464E-05
  -1.203513051893022E-05  -1.233979949798495E-05  -1.265218111664807E-05
  -1.297247061658768E-05  -1.330086818179558E-05  -1.363757906369032E-05
  -1.398281370938667E-05  -1.433678789321152E-05  -1.469972285154840E-05
  -1.507184542109510E-05  -1.545338818062003E-05  -1.584458959630693E-05
  -1.624569417077761E-05  -1.665695259588664E-05  -1.707862190938304E-05
  -1.751096565553676E-05  -1.795425404983060E-05  -1.840876414781995E-05
  -1.887478001826634E-05  -1.935259292065256E-05  -1.984250148719020E-05
  -2.034481190943352E-05  -2.085983812961600E-05  -2.138790203682910E-05
  -2.192933366816589E-05  -2.248447141495463E-05  -2.305366223421196E-05
  -2.363726186544667E-05  -2.423563505295048E-05  -2.484915577371390E-05
  -2.547820747110946E-05  -2.612318329448899E-05  -2.678448634484330E-05
  -2.746252992667889E-05  -2.815773780626826E-05  -2.887054447643467E-05
  -2.960139542803770E-05  -3.035074742832823E-05  -3.111906880634680E-05
  -3.190683974554361E-05  -3.271455258380265E-05  -3.354271212105763E-05
  -3.439183593469086E-05  -3.526245470291295E-05  -3.615511253632432E-05
  -3.707036731786576E-05  -3.800879105137043E-05  -3.897097021893410E-05
  -3.995750614732757E-05  -4.096901538367908E-05  -4.200613008066121E-05
  -4.306949839142336E-05  -4.415978487451503E-05  -4.527767090905347E-05
  -4.642385512039426E-05  -4.759905381657023E-05  -4.880400143577142E-05
  -5.003945100514449E-05  -5.130617461119845E-05  -5.260496388210956E-05
  -5.393663048222627E-05  -5.530200661908301E-05  -5.670194556323806E-05
  -5.813732218126061E-05  -5.960903348219873E-05  -6.111799917786880E-05
  -6.266516225731632E-05  -6.425148957580561E-05  -6.587797245870562E-05
  -6.754562732064857E-05  -6.925549630034641E-05  -7.100864791146232E-05
  -7.280617770994083E-05  -7.464920897821361E-05  -7.653889342670704E-05
  -7.847641191308835E-05  -8.046297517969890E-05  -8.249982460963211E-05
  -8.458823300192998E-05  -8.672950536637814E-05  -8.892497973839584E-05
  -9.117602801452758E-05  -9.348405680905703E-05  -9.585050833227663E-05
  -9.827686129095831E-05  -1.007646318115878E-04  -1.033153743869341E-04
  -1.059306828465467E-04  -1.086121913517819E-04  -1.113615754159774E-04
  -1.141805529504115E-04  -1.170708853366942E-04  -1.200343785262606E-04
  -1.230728841676490E-04  -1.261883007622617E-04  -1.293825748493337E-04
  -1.326577022208371E-04  -1.360157291670833E-04  -1.394587537537936E-04
  -1.429889271314328E-04  -1.466084548776179E-04  -1.503195983734364E-04
  -1.541246762145296E-04  -1.580260656578154E-04  -1.620262041047491E-04
  -1.661275906220456E-04  -1.703327875008003E-04  -1.746444218549826E-04
  -1.790651872602909E-04  -1.835978454343830E-04  -1.882452279595308E-04
  -1.930102380487565E-04  -1.978958523565574E-04  -2.029051228353306E-04
  -2.080411786386540E-04  -2.133072280726008E-04  -2.187065605962947E-04
  -2.242425488729467E-04  -2.299186508726408E-04  -2.357384120281715E-04
  -2.417054674452678E-04  -2.478235441685624E-04  -2.540964635047225E-04
  -2.605281434041621E-04  -2.671226009028211E-04  -2.738839546255101E-04
  -2.808164273523691E-04  -2.879243486500318E-04  -2.952121575691081E-04
  -3.026844054096585E-04  -3.103457585563766E-04  -3.182010013851332E-04
  -3.262550392429276E-04  -3.345129015027528E-04  -3.429797446953913E-04
  -3.516608557202935E-04  -3.605616551370466E-04  -3.696877005400385E-04
  -3.790446900176548E-04  -3.886384656990379E-04  -3.984750173897580E-04
  -4.085604862991139E-04  -4.189011688611954E-04  -4.295035206521148E-04
  -4.403741604057659E-04  -4.515198741304581E-04  -4.629476193291986E-04
  -4.746645293261395E-04  -4.866779177015135E-04  -4.989952828382857E-04
  -5.116243125829348E-04  -5.245728890233720E-04  -5.378490933868753E-04
  -5.514612110608144E-04  -5.654177367398506E-04  -5.797273797020277E-04
  -5.943990692173344E-04  -6.094419600919413E-04  -6.248654383516435E-04
  -6.406791270679247E-04  -6.568928923296928E-04  -6.735168493650683E-04
  -6.905613688165587E-04  -7.080370831733562E-04  -7.259548933648317E-04
  -7.443259755190527E-04  -7.631617878905416E-04  -7.824740779615140E-04
  -8.022748897205940E-04  -8.225765711237519E-04  -8.433917817416726E-04
  -8.647335005984733E-04  -8.866150342061346E-04  -9.090500247995419E-04
  -9.320524587775835E-04  -9.556366753543518E-04  -9.798173754268246E-04
  -1.004609630663435E-03  -1.030028892819197E-03  -1.056091003283246E-03
  -1.082812202864111E-03  -1.110209141818720E-03  -1.138298890131090E-03
  -1.167098948046878E-03  -1.196627256869627E-03  -1.226902210025961E-03
  -1.257942664405258E-03  -1.289767951981191E-03  -1.322397891721890E-03
  -1.355852801795135E-03  -1.390153512077137E-03  -1.425321376970644E-03
  -1.461378288540596E-03  -1.498346689975380E-03  -1.536249589381042E-03
  -1.575110573916555E-03  -1.614953824278695E-03  -1.655804129544122E-03
  -1.697686902378890E-03  -1.740628194621341E-03  -1.784654713251840E-03
  -1.829793836752791E-03  -1.876073631873625E-03  -1.923522870807653E-03
  -1.972171048791104E-03  -2.022048402133126E-03  -2.073185926690545E-03
  -2.125615396793931E-03  -2.179369384638401E-03  -2.234481280148176E-03
  -2.290985311327661E-03  -2.348916565109284E-03  -2.408311008711253E-03
  -2.469205511514820E-03  -2.531637867475863E-03  -2.595646818081252E-03
  -2.661272075863513E-03  -2.728554348486825E-03  -2.797535363417323E-03
  -2.868257893191031E-03  -2.940765781294018E-03  -3.015103968667780E-03
  -3.091318520854145E-03  -3.169456655797075E-03  -3.249566772310544E-03
  -3.331698479234435E-03  -3.415902625289390E-03  -3.502231329646902E-03
  -3.590738013233785E-03  -3.681477430782710E-03  -3.774505703650869E-03
  -3.869880353417965E-03  -3.967660336286876E-03  -4.067906078299191E-03
  -4.170679511387899E-03  -4.276044110282756E-03  -4.384064930287965E-03
  -4.494808645951205E-03  -4.608343590643481E-03  -4.724739797067942E-03
  -4.844069038719225E-03  -4.966404872312580E-03  -5.091822681204167E-03
  -5.220399719821711E-03  -5.352215159128529E-03  -5.487350133141294E-03
  -5.625887786523408E-03  -5.767913323276207E-03  -5.913514056550911E-03
  -6.062779459602824E-03  -6.215801217910562E-03  -6.372673282486509E-03
  -6.533491924397822E-03  -6.698355790523671E-03  -6.867365960574337E-03
  -7.040626005393018E-03  -7.218242046567036E-03  -7.400322817374135E-03
  -7.586979725084555E-03  -7.778326914649133E-03  -7.974481333795013E-03
  -8.175562799556231E-03  -8.381694066262681E-03  -8.593000895016056E-03
  -8.809612124676429E-03  -9.031659744384194E-03  -9.259278967646315E-03
  -9.492608308010547E-03  -9.731789656352116E-03  -9.976968359803124E-03
  -1.022829330234366E-02  -1.048591698708715E-02  -1.074999562027858E-02
  -1.102068919703574E-02  -1.129816158885452E-02  -1.158258063290623E-02
  -1.187411822314559E-02  -1.217295040325959E-02  -1.247925746147476E-02
  -1.279322402724748E-02  -1.311503916985914E-02  -1.344489649893786E-02
  -1.378299426692337E-02  -1.412953547350070E-02  -1.448472797201451E-02
  -1.484878457788490E-02  -1.522192317904147E-02  -1.560436684838687E-02
  -1.599634395830679E-02  -1.639808829723661E-02  -1.680983918829403E-02
  -1.723184160998905E-02  -1.766434631901425E-02  -1.810760997512204E-02
  -1.856189526809015E-02  -1.902747104677604E-02  -1.950461245025520E-02
  -1.999360104104110E-02  -2.049472494037485E-02  -2.100827896557440E-02
  -2.153456476942994E-02  -2.207389098162065E-02  -2.262657335213928E-02
  -2.319293489668905E-02  -2.377330604402652E-02  -2.436802478521472E-02
  -2.497743682474291E-02  -2.560189573346945E-02  -2.624176310333470E-02
  -2.689740870378751E-02  -2.756921063986011E-02  -2.825755551182172E-02
  -2.896283857633221E-02  -2.968546390901261E-02  -3.042584456833664E-02
  -3.118440276074389E-02  -3.196157000686335E-02  -3.275778730872833E-02
  -3.357350531785182E-02  -3.440918450402294E-02  -3.526529532467567E-02
  -3.614231839466259E-02  -3.704074465626321E-02  -3.796107554923608E-02
  -3.890382318071731E-02  -3.986951049474321E-02  -4.085867144117547E-02
  -4.187185114377472E-02  -4.290960606716403E-02  -4.397250418240200E-02
  -4.506112513086294E-02  -4.617606038611276E-02  -4.731791341343700E-02
  -4.848729982666589E-02  -4.968484754191335E-02  -5.091119692782565E-02
  -5.216700095191350E-02  -5.345292532251140E-02  -5.476964862588404E-02
  -5.611786245797289E-02  -5.749827155024488E-02  -5.891159388907496E-02
  -6.035856082806454E-02  -6.183991719266260E-02  -6.335642137642249E-02
  -6.490884542819346E-02  -6.649797512950263E-02  -6.812461006135358E-02
  -6.978956365961628E-02  -7.149366325815015E-02  -7.323775011875192E-02
  -7.502267944697781E-02  -7.684932039283918E-02  -7.871855603532607E-02
  -8.063128334965619E-02  -8.258841315609966E-02  -8.459087004917179E-02
  -8.663959230592883E-02  -8.873553177204786E-02  -9.087965372430613E-02
  -9.307293670801539E-02  -9.531637234790258E-02  -9.761096513086144E-02
  -9.995773215893101E-02  -1.023577028707888E-01  -1.048119187299714E-01
  -1.073214328779653E-01  -1.098873097502305E-01  -1.125106246531496E-01
  -1.151924632998055E-01  -1.179339213024224E-01  -1.207361036192142E-01
  -1.236001239533036E-01  -1.265271041012937E-01  -1.295181732489848E-01
  -1.325744672116466E-01  -1.356971276161665E-01  -1.388873010223056E-01
  -1.421461379802182E-01  -1.454747920212865E-01  -1.488744185792518E-01
  -1.523461738385289E-01  -1.558912135065082E-01  -1.595106915065717E-01
  -1.632057585884643E-01  -1.669775608525866E-01  -1.708272381847066E-01
  -1.747559225975065E-01  -1.787647364753298E-01  -1.828547907184278E-01
  -1.870271827829510E-01  -1.912829946128912E-01  -1.956232904601352E-01
  -2.000491145887731E-01  -2.045614888597799E-01  -2.091614101921856E-01
  -2.138498478968636E-01  -2.186277408790727E-01  -2.234959947059506E-01
  -2.284554785351919E-01  -2.335070219012279E-01  -2.386514113553293E-01
  -2.438893869561505E-01  -2.492216386074162E-01  -2.546488022395814E-01
  -2.601714558325315E-01  -2.657901152766162E-01  -2.715052300695611E-01
  -2.773171788471498E-01  -2.832262647458725E-01  -2.892327105961606E-01
  -2.953366539452627E-01  -3.015381419092837E-01  -3.078371258544897E-01
  -3.142334559085429E-01  -3.207268753030213E-01  -3.273170145492937E-01
  -3.340033854505995E-01  -3.407853749540939E-01  -3.476622388475032E-01
  -3.546330953061117E-01  -3.616969182968913E-01  -3.688525308477725E-01
  -3.760985981913803E-01  -3.834336207939111E-01  -3.908559272813508E-01
  -3.983636672768224E-01  -4.059548041645377E-01  -4.136271077976967E-01
  -4.213781471695537E-01  -4.292052830689658E-01  -4.371056607439094E-01
  -4.450762025987237E-01  -4.531136009533018E-01  -4.612143108949459E-01
  -4.693745432563154E-01  -4.775902577556760E-01  -4.858571563385353E-01
  -4.941706767628366E-01  -5.025259864729497E-01  -5.109179768109735E-01
  -5.193412576172034E-01  -5.277901522749681E-01  -5.362586932585941E-01
  -5.447406182467174E-01  -5.532293668667673E-01  -5.617180781400085E-01
  -5.701995887000580E-01  -5.786664318613547E-01  -5.871108376174344E-01
  -5.955247336522275E-01  -6.038997474507345E-01  -6.122272095983836E-01
  -6.204981583610796E-01  -6.287033456403203E-01  -6.368332443997390E-01
  -6.448780576610158E-01  -6.528277291680236E-01  -6.606719558185572E-01
  -6.684002019625847E-01  -6.760017156648760E-01  -6.834655470278180E-01
  -6.907805686670762E-01  -6.979354984285739E-01  -7.049189244296982E-01
  -7.117193325006470E-01  -7.183251360933355E-01  -7.247247087149236E-01
  -7.309064189309262E-01  -7.368586679685757E-01  -7.425699299346713E-01
  -7.480287946432884E-01  -7.532240130272498E-01  -7.581445450831171E-01
  -7.627796102722957E-01  -7.671187402706738E-01  -7.711518339257925E-01
  -7.748692142436622E-01  -7.782616871870623E-01  -7.813206020231548E-01
  -7.840379129106285E-01  -7.864062413652156E-01  -7.884189391872691E-01
  -7.900701513763334E-01  -7.913548784952209E-01  -7.922690378803181E-01
  -7.928095230258806E-01  -7.929742603982769E-01  -7.927622628619436E-01
  -7.921736788227476E-01  -7.912098361172267E-01  -7.898732795985651E-01
  -7.881678012931013E-01  -7.860984619258430E-01  -7.836716025411394E-01
  -7.808948448768409E-01  -7.777770790886894E-01  -7.743284373682158E-01
  -7.705602519543006E-01  -7.664849960080435E-01  -7.621162058058911E-01
  -7.574683827083944E-01  -7.525568733873242E-01  -7.473977268429024E-01
  -7.420075268207790E-01  -7.364031983484450E-01  -7.306017872571051E-01
  -7.246202117418151E-01  -7.184749852440637E-01  -7.121819102214805E-01
  -7.057557427028700E-01  -6.992098279177671E-01  -6.925557077417726E-01
  -6.858027012156800E-01  -6.789574599807366E-01  -6.720235011265620E-01
  -6.650007206736316E-01  -6.578867703748339E-01  -6.506838395274285E-01
  -6.433956369962308E-01  -6.360258985220468E-01  -6.285783837727017E-01
  -6.210568734429860E-01  -6.134651664034350E-01  -6.058070768989133E-01
  -5.980864317975443E-01  -5.903070678901117E-01  -5.824728287520869E-01
  -5.745875582141509E-01  -5.666551066705601E-01  -5.586793246324313E-01
  -5.506640597736918E-01  -5.426131545183683E-01  -5.345304436709886E-01
  -5.264197520880979E-01  -5.182848923887619E-01  -5.101296627017742E-01
  -5.019578444471965E-01  -4.937732001497898E-01  -4.855794712818465E-01
  -4.773803761329307E-01  -4.691796077040304E-01  -4.609808316236857E-01
  -4.527876840837251E-01  -4.446037697923234E-01  -4.364326599422439E-01
  -4.282778901922517E-01  -4.201429586598701E-01  -4.120313239238530E-01
  -4.039464030349361E-01  -3.958915695336998E-01  -3.878701514746001E-01
  -3.798854294555060E-01  -3.719406346523730E-01  -3.640389468589520E-01
  -3.561834925317734E-01  -3.483773428409238E-01  -3.406235117274828E-01
  -3.329249539687928E-01  -3.252845632530627E-01  -3.177051702651409E-01
  -3.101895407855985E-01  -3.027403738055923E-01  -2.953602996602883E-01
  -2.880518781839126E-01  -2.808175968898032E-01  -2.736598691790973E-01
  -2.665810325819558E-01  -2.595833470354710E-01  -2.526689932026193E-01
  -2.458400708368320E-01  -2.390985971969279E-01  -2.324465055173177E-01
  -2.258856435385150E-01  -2.194177721030886E-01  -2.130445638222790E-01
  -2.067676018185362E-01  -2.005883785492618E-01  -1.945082947170283E-01
  -1.885286582714925E-01  -1.826506835081618E-01  -1.768754902690546E-01
  -1.712041032501647E-01  -1.656374514204717E-01  -1.601763675570351E-01
  -1.548215879004880E-01  -1.495737519349822E-01  -1.444334022963479E-01
  -1.394009848119210E-01  -1.344768486751412E-01  -1.296612467576638E-01
  -1.249543360613298E-01  -1.203561783119283E-01  -1.158667406962541E-01
  -1.114858967435018E-01  -1.072134273515811E-01  -1.030490219584421E-01
  -9.899227985801323E-02  -9.504271165984864E-02  -9.119974089106556E-02
  -8.746270573864286E-02  -8.383086092963001E-02  -8.030337974630183E-02
  -7.687935617278104E-02  -7.355780716914397E-02  -7.033767506852899E-02
  -6.721783009228310E-02  -6.419707297770887E-02  -6.127413771252738E-02
  -5.844769436973455E-02  -5.571635203612293E-02  -5.307866182735432E-02
  -5.053311998211210E-02  -4.807817102753578E-02  -4.571221100784170E-02
  -4.343359076777517E-02  -4.124061928230904E-02  -3.913156702381514E-02
  -3.710466935778288E-02  -3.515812995804423E-02  -3.329012423239351E-02
  -3.149880274945527E-02  -2.978229465766289E-02  -2.813871108725978E-02
  -2.656614852632378E-02  -2.506269216194689E-02  -2.362641917787203E-02
  -2.225540200009742E-02  -2.094771148220671E-02  -1.970142002246490E-02
  -1.851460460503930E-02  -1.738534975805439E-02  -1.631175042157185E-02
  -1.529191471899700E-02  -1.432396662584915E-02  -1.340604853029413E-02
  -1.253632368031772E-02  -1.171297851291813E-02  -1.093422486121043E-02
  -1.019830203586186E-02  -9.503478777813480E-03  -8.848055079784636E-03
  -8.230363874602544E-03  -7.648772588943330E-03  -7.101684561612883E-03
  -6.587540326031613E-03  -6.104818757113494E-03  -5.652038083244943E-03
  -5.227756764569427E-03  -4.830574239267063E-03  -4.459131539982876E-03
  -4.112111782999724E-03  -3.788240533171105E-03  -3.486286048022817E-03
  -3.205059404798883E-03  -2.943414514565729E-03  -2.700248027797038E-03
  -2.474499136140067E-03  -2.265149275310879E-03  -2.071221734281020E-03
  -1.891781176101099E-03  -1.725933075857324E-03  -1.572823081375689E-03
  -1.431636302375389E-03  -1.301596533828578E-03  -1.181965419308752E-03
  -1.072041560105466E-03  -9.711595758499463E-04  -8.786891223356554E-04
  -7.940338721299387E-04  -7.166304634556036E-04  -6.459474227356328E-04
  -5.814840659271268E-04  -5.227693837022186E-04  -4.693609153358094E-04
  -4.208436158438786E-04  -3.768287208096015E-04  -3.369526130408203E-04
  -3.008756949609235E-04  -2.682812703780050E-04  -2.388744390105609E-04
  -2.123810068747045E-04  -1.885469392138224E-04  -1.671414615052649E-04
  -1.479459033591719E-04  -1.307577673494836E-04  -1.153903581303073E-04
  -1.016718186057635E-04  -8.944420109518830E-05  -7.856257418293988E-05
  -6.889416575536093E-05  -6.031754254747396E-05  -5.272182634920111E-05
  -4.600594686315680E-05  -4.007793103860868E-05  -3.485422857539573E-05
  -3.025907315086914E-05  -2.622387880045558E-05  -2.268667077034126E-05
  -1.959155005985516E-05  -1.688819078174813E-05  -1.453136939083565E-05
  -1.248052476546511E-05  -1.069934807201203E-05  -9.155401300115984E-06
  -7.819763325659324E-06  -6.666702339626208E-06  -5.673373474089456E-06
  -4.819540461912467E-06  -4.087320184756429E-06  -3.460948995340612E-06
  -2.926569745657005E-06  -2.472038514510751E-06  -2.086750107503761E-06
  -1.761481503412751E-06  -1.483668147426625E-06  -1.246908059701564E-06
  -1.045583796799493E-06  -8.747775678887678E-07  -7.301940435047511E-07
  -6.080903430108125E-07  -5.052127000495947E-07  -4.187393206461970E-07
  -3.462289658887171E-07  -2.855748099327525E-07  -2.349631441449338E-07
  -1.928365192172406E-07  -1.578609387697498E-07  -1.288967400550249E-07
  -1.049728196444817E-07  -8.526388419970254E-08  -6.907042841637916E-08
  -5.580116380470521E-08  -4.495764298947566E-08  -3.612084454990731E-08
  -2.893950296859705E-08  -2.311998693681634E-08  -1.841754700446235E-08
  -1.462877032030354E-08  -1.158509595103475E-08  -9.147258980412705E-09
  -7.200545270113911E-09  -5.650751421500251E-09  -4.420756132010268E-09
  -3.447619819934697E-09  -2.680139132640175E-09  -2.076791797437688E-09
  -1.604015267315060E-09  -1.234769804996097E-09  -9.473430897443229E-10
  -7.243591746490214E-10  -5.519597207481294E-10  -4.191299407065051E-10
  -3.171456501978590E-10  -2.391212992830370E-10  -1.796418864838576E-10
  -1.344642900298155E-10  -1.002758263323490E-10  -7.449980469828336E-11
  -5.513952627181283E-11  -4.065360786471440E-11  -2.985672842335746E-11
  -2.184092523648942E-11  -1.591343368378767E-11  -1.154779079406225E-11
  -8.345529067514331E-12  -6.006290541485728E-12  -4.304607422295774E-12
  -3.071938281819605E-12  -2.182829557559782E-12  -1.544301023093061E-12
  -1.087739698857412E-12  -7.627367626633630E-13  -5.324226823834580E-13
  -3.699523336358205E-13  -2.558687316300842E-13  -1.761349092998526E-13
  -1.206714910228624E-13  -8.227518090515890E-14  -5.582278847194553E-14
  -3.768825029605489E-14  -2.531775022044619E-14  -1.692160337942158E-14
  -1.125194010870738E-14  -7.443114463333687E-15  -4.897730705368937E-15
  -3.205672866535791E-15  -2.086884474982542E-15  -1.351148148889024E-15
  -8.699673717876724E-16  -5.570165397451029E-16  -3.546236290922630E-16
  -2.244763727287076E-16  -1.412685652131533E-16  -8.838132626506892E-17
  -5.496463218019731E-17  -3.397670926878250E-17  -2.087475624600653E-17
  -1.274588929373303E-17  -7.733811811162176E-18  -4.662914582971367E-18
  -2.793360344291532E-18  -1.662520141781490E-18  -9.829732047041704E-19
  -5.773180952600767E-19  -3.367835338676676E-19  -1.951244630822376E-19
  -1.122691209642311E-19  -6.414439609936682E-20  -3.638886479098119E-20
  -2.049513531970995E-20  -1.145951371495393E-20  -6.360259389898368E-21
  -3.503775979857558E-21  -1.915621993271995E-21  -1.039330999506792E-21
  -5.595341686508654E-22  -2.988722303085124E-22  -1.583754125532211E-22
  -8.325104209575966E-23  -4.340574927017913E-23  -2.244480709469916E-23
  -1.150933836390854E-23  -5.852008562258751E-24  -2.950076914468378E-24
  -1.474309323445600E-24  -7.303369567292082E-25  -3.585826268471602E-25
  -1.744768520402337E-25  -8.412395599300191E-26  -4.018693907106398E-26
  -1.901879444137900E-26  -8.915848189136776E-27  -4.139731137506803E-27
  -1.903526430352030E-27  -8.667020935080354E-28  -3.907069395461651E-28
  -1.743605616825552E-28  -7.702045384837342E-29  -3.367198336468604E-29
  -1.456731671069923E-29  -6.235645014977245E-30  -2.640682327102990E-30
  -1.106178355919878E-30  -4.582989963655573E-31  -1.877704251796117E-31
  -7.606748051037307E-32  -3.046510582346008E-32  -1.206078703683267E-32
  -4.719050246993575E-33  -1.824632679046623E-33  -6.970650117561337E-34
  -2.630767005785950E-34  -9.807000697695357E-35  -3.610500075321652E-35
    </PP_CHI.2>
  </PP_PSWFC>
  <PP_FULL_WFC number_of_wfc="4">
    <PP_AEWFC.1 index="1" label="2S" l="0">
   1.161824120378658E-03   1.176412988887575E-03   1.191185047847299E-03
   1.206142597555570E-03   1.221287788068672E-03   1.236622594339116E-03
   1.252149487465003E-03   1.267870851853187E-03   1.283789121015156E-03
   1.299906758789345E-03   1.316226259678871E-03   1.332750149233364E-03
   1.349480984432555E-03   1.366421354074405E-03   1.383573879167941E-03
   1.400941213330852E-03   1.418526043191898E-03   1.436331088798183E-03
   1.454359104027352E-03   1.472612877004772E-03   1.491095230525754E-03
   1.509809022482861E-03   1.528757146298386E-03   1.547942531362040E-03
   1.567368143473911E-03   1.587036985292770E-03   1.606952096789765E-03
   1.627116555707582E-03   1.647533478025127E-03   1.668206018427791E-03
   1.689137370783372E-03   1.710330768623702E-03   1.731789485632065E-03
   1.753516836136452E-03   1.775516175608734E-03   1.797790901169809E-03
   1.820344452100803E-03   1.843180310360384E-03   1.866302001108261E-03
   1.889713093234939E-03   1.913417199897800E-03   1.937417979063579E-03
   1.961719134057316E-03   1.986324414117839E-03   2.011237614959873E-03
   2.036462579342833E-03   2.062003197646378E-03   2.087863408452814E-03
   2.114047199136401E-03   2.140558606459666E-03   2.167401717176769E-03
   2.194580668644039E-03   2.222099649437717E-03   2.249962899979022E-03
   2.278174713166594E-03   2.306739435016415E-03   2.335661465309275E-03
   2.364945258245874E-03   2.394595323109643E-03   2.424616224937360E-03
   2.455012585197667E-03   2.485789082477539E-03   2.516950453176826E-03
   2.548501492210939E-03   2.580447053721761E-03   2.612792051796890E-03
   2.645541461197288E-03   2.678700318093431E-03   2.712273720810056E-03
   2.746266830579583E-03   2.780684872304327E-03   2.815533135327563E-03
   2.850816974213569E-03   2.886541809536714E-03   2.922713128679707E-03
   2.959336486641093E-03   2.996417506852093E-03   3.033961882002886E-03
   3.071975374878439E-03   3.110463819203966E-03   3.149433120500139E-03
   3.188889256948126E-03   3.228838280264584E-03   3.269286316586685E-03
   3.310239567367286E-03   3.351704310280361E-03   3.393686900136768E-03
   3.436193769810484E-03   3.479231431175399E-03   3.522806476052779E-03
   3.566925577169500E-03   3.611595489127166E-03   3.656823049382219E-03
   3.702615179237146E-03   3.748978884842883E-03   3.795921258212555E-03
   3.843449478246623E-03   3.891570811769586E-03   3.940292614578319E-03
   3.989622332502180E-03   4.039567502474990E-03   4.090135753618997E-03
   4.141334808340946E-03   4.193172483440363E-03   4.245656691230156E-03
   4.298795440669687E-03   4.352596838510379E-03   4.407069090454011E-03
   4.462220502323810E-03   4.518059481248441E-03   4.574594536859032E-03
   4.631834282499347E-03   4.689787436449207E-03   4.748462823161314E-03
   4.807869374511546E-03   4.868016131062901E-03   4.928912243343155E-03
   4.990566973136382E-03   5.052989694788460E-03   5.116189896526652E-03
   5.180177181793426E-03   5.244961270594590E-03   5.310552000861892E-03
   5.376959329830185E-03   5.444193335429302E-03   5.512264217690723E-03
   5.581182300169196E-03   5.650958031379389E-03   5.721601986247740E-03
   5.793124867579575E-03   5.865537507541643E-03   5.938850869160184E-03
   6.013076047834636E-03   6.088224272867113E-03   6.164306909007758E-03
   6.241335458016095E-03   6.319321560238493E-03   6.398276996201865E-03
   6.478213688223704E-03   6.559143702038582E-03   6.641079248441213E-03
   6.724032684946211E-03   6.808016517464630E-03   6.893043401997414E-03
   6.979126146345863E-03   7.066277711839216E-03   7.154511215079473E-03
   7.243839929703533E-03   7.334277288162796E-03   7.425836883520279E-03
   7.518532471265391E-03   7.612377971146447E-03   7.707387469021017E-03
   7.803575218724215E-03   7.900955643955005E-03   7.999543340180642E-03
   8.099353076559316E-03   8.200399797881097E-03   8.302698626527244E-03
   8.406264864448012E-03   8.511113995158970E-03   8.617261685755967E-03
   8.724723788948775E-03   8.833516345113512E-03   8.943655584363898E-03
   9.055157928641399E-03   9.168039993824368E-03   9.282318591856154E-03
   9.398010732892346E-03   9.515133627467086E-03   9.633704688678609E-03
   9.753741534393947E-03   9.875261989472932E-03   9.998284088011450E-03
   1.012282607560404E-02   1.024890641162581E-02   1.037654377153375E-02
   1.050575704918736E-02   1.063656535918873E-02   1.076898803924197E-02
   1.090304465253203E-02   1.103875499012287E-02   1.117613907337507E-02
   1.131521715638269E-02   1.145600972842950E-02   1.159853751646447E-02
   1.174282148759649E-02   1.188888285160829E-02   1.203674306348952E-02
   1.218642382598879E-02   1.233794709218484E-02   1.249133506807655E-02
   1.264661021519175E-02   1.280379525321482E-02   1.296291316263284E-02
   1.312398718740029E-02   1.328704083762209E-02   1.345209789225488E-02
   1.361918240182637E-02   1.378831869117264E-02   1.395953136219317E-02
   1.413284529662346E-02   1.430828565882501E-02   1.448587789859245E-02
   1.466564775397769E-02   1.484762125413072E-02   1.503182472215690E-02
   1.521828477799049E-02   1.540702834128407E-02   1.559808263431366E-02
   1.579147518489914E-02   1.598723382933971E-02   1.618538671536409E-02
   1.638596230509493E-02   1.658898937802733E-02   1.679449703402087E-02
   1.700251469630475E-02   1.721307211449580E-02   1.742619936762877E-02
   1.764192686719833E-02   1.786028536021260E-02   1.808130593225746E-02
   1.830502001057114E-02   1.853145936712869E-02   1.876065612173555E-02
   1.899264274512985E-02   1.922745206209258E-02   1.946511725456519E-02
   1.970567186477388E-02   1.994914979835983E-02   2.019558532751474E-02
   2.044501309412085E-02   2.069746811289472E-02   2.095298577453397E-02
   2.121160184886607E-02   2.147335248799840E-02   2.173827422946859E-02
   2.200640399939435E-02   2.227777911562168E-02   2.255243729087048E-02
   2.283041663587665E-02   2.311175566252952E-02   2.339649328700342E-02
   2.368466883288247E-02   2.397632203427717E-02   2.427149303893173E-02
   2.457022241132081E-02   2.487255113573440E-02   2.517852061934939E-02
   2.548817269528664E-02   2.580154962565187E-02   2.611869410455910E-02
   2.643964926113495E-02   2.676445866250236E-02   2.709316631674194E-02
   2.742581667582945E-02   2.776245463854751E-02   2.810312555336984E-02
   2.844787522131628E-02   2.879674989877643E-02   2.914979630030020E-02
   2.950706160135319E-02   2.986859344103480E-02   3.023443992475685E-02
   3.060464962688068E-02   3.097927159331041E-02   3.135835534403986E-02
   3.174195087565106E-02   3.213010866376147E-02   3.252287966541780E-02
   3.292031532143341E-02   3.332246755866691E-02   3.372938879223904E-02
   3.414113192768499E-02   3.455775036303931E-02   3.497929799085028E-02
   3.540582920012081E-02   3.583739887817258E-02   3.627406241243010E-02
   3.671587569212154E-02   3.716289510989268E-02   3.761517756333054E-02
   3.807278045639306E-02   3.853576170074100E-02   3.900417971696840E-02
   3.947809343572745E-02   3.995756229874390E-02   4.044264625971884E-02
   4.093340578511244E-02   4.142990185480544E-02   4.193219596263397E-02
   4.244035011679281E-02   4.295442684010272E-02   4.347448917013665E-02
   4.400060065920030E-02   4.453282537416146E-02   4.507122789612331E-02
   4.561587331993605E-02   4.616682725354158E-02   4.672415581714547E-02
   4.728792564221058E-02   4.785820387026623E-02   4.843505815152714E-02
   4.901855664331576E-02   4.960876800828162E-02   5.020576141241135E-02
   5.080960652282260E-02   5.142037350533509E-02   5.203813302181171E-02
   5.266295622726266E-02   5.329491476670534E-02   5.393408077177217E-02
   5.458052685705921E-02   5.523432611620722E-02   5.589555211770755E-02
   5.656427890042424E-02   5.724058096882441E-02   5.792453328790784E-02
   5.861621127782748E-02   5.931569080819140E-02   6.002304819203735E-02
   6.073836017947049E-02   6.146170395095438E-02   6.219315711024603E-02
   6.293279767696430E-02   6.368070407878194E-02   6.443695514323046E-02
   6.520163008910740E-02   6.597480851747482E-02   6.675657040223824E-02
   6.754699608029405E-02   6.834616624123437E-02   6.915416191659723E-02
   6.997106446864988E-02   7.079695557869294E-02   7.163191723487283E-02
   7.247603171948963E-02   7.332938159578700E-02   7.419204969421107E-02
   7.506411909812458E-02   7.594567312896200E-02   7.683679533081197E-02
   7.773756945441233E-02   7.864807944054265E-02   7.956840940279994E-02
   8.049864360974165E-02   8.143886646638056E-02   8.238916249501554E-02
   8.334961631538240E-02   8.432031262410777E-02   8.530133617344958E-02
   8.629277174930709E-02   8.729470414848292E-02   8.830721815517950E-02
   8.933039851671193E-02   9.036432991841899E-02   9.140909695775359E-02
   9.246478411753394E-02   9.353147573833591E-02   9.460925599000759E-02
   9.569820884228536E-02   9.679841803449213E-02   9.790996704429697E-02
   9.903293905551490E-02   1.001674169249266E-01   1.013134831480959E-01
   1.024712198241636E-01   1.036407086195954E-01   1.048220307308620E-01
   1.060152668460283E-01   1.072204971052284E-01   1.084378010600044E-01
   1.096672576314840E-01   1.109089450673731E-01   1.121629408977412E-01
   1.134293218895715E-01   1.147081640000552E-01   1.159995423286011E-01
   1.173035310675375E-01   1.186202034514804E-01   1.199496317053415E-01
   1.212918869909501E-01   1.226470393522629E-01   1.240151576591349E-01
   1.253963095496240E-01   1.267905613708032E-01   1.281979781180519E-01
   1.296186233727998E-01   1.310525592386950E-01   1.324998462761691E-01
   1.339605434353701E-01   1.354347079874360E-01   1.369223954540802E-01
   1.384236595354600E-01   1.399385520363005E-01   1.414671227902430E-01
   1.430094195823925E-01   1.445654880700322E-01   1.461353717014781E-01
   1.477191116330435E-01   1.493167466440858E-01   1.509283130501058E-01
   1.525538446138709E-01   1.541933724545332E-01   1.558469249547147E-01
   1.575145276655300E-01   1.591962032095187E-01   1.608919711814599E-01
   1.626018480470391E-01   1.643258470393424E-01   1.660639780531478E-01
   1.678162475369888E-01   1.695826583829630E-01   1.713632098142581E-01
   1.731578972703714E-01   1.749667122899967E-01   1.767896423915530E-01
   1.786266709513321E-01   1.804777770792405E-01   1.823429354921137E-01
   1.842221163845793E-01   1.861152852974488E-01   1.880224029836174E-01
   1.899434252714509E-01   1.918783029256430E-01   1.938269815055237E-01
   1.957894012208028E-01   1.977654967847333E-01   1.997551972646804E-01
   2.017584259300824E-01   2.037751000977940E-01   2.058051309747987E-01
   2.078484234982848E-01   2.099048761730767E-01   2.119743809064155E-01
   2.140568228400867E-01   2.161520801798921E-01   2.182600240224675E-01
   2.203805181794468E-01   2.225134189989784E-01   2.246585751845996E-01
   2.268158276114786E-01   2.289850091400344E-01   2.311659444269507E-01
   2.333584497335970E-01   2.355623327318802E-01   2.377773923075452E-01
   2.400034183609525E-01   2.422401916053588E-01   2.444874833627343E-01
   2.467450553571498E-01   2.490126595057721E-01   2.512900377075112E-01
   2.535769216293625E-01   2.558730324904961E-01   2.581780808441440E-01
   2.604917663573456E-01   2.628137775886115E-01   2.651437917635723E-01
   2.674814745486845E-01   2.698264798230678E-01   2.721784494485551E-01
   2.745370130380403E-01   2.769017877222157E-01   2.792723779147938E-01
   2.816483750763157E-01   2.840293574766540E-01   2.864148899563216E-01
   2.888045236867081E-01   2.911977959293660E-01   2.935942297944807E-01
   2.959933339986610E-01   2.983946026221955E-01   3.007975148659257E-01
   3.032015348078951E-01   3.056061111599394E-01   3.080106770243908E-01
   3.104146496510773E-01   3.128174301948048E-01   3.152184034735185E-01
   3.176169377273461E-01   3.200123843787378E-01   3.224040777939206E-01
   3.247913350458977E-01   3.271734556792307E-01   3.295497214768496E-01
   3.319193962291489E-01   3.342817255056310E-01   3.366359364293738E-01
   3.389812374546042E-01   3.413168181476715E-01   3.436418489717217E-01
   3.459554810753881E-01   3.482568460858177E-01   3.505450559063683E-01
   3.528192025193178E-01   3.550783577939404E-01   3.573215733003120E-01
   3.595478801292192E-01   3.617562887185586E-01   3.639457886866195E-01
   3.661153486726584E-01   3.682639161851819E-01   3.703904174583662E-01
   3.724937573170523E-01   3.745728190507678E-01   3.766264642972362E-01
   3.786535329358451E-01   3.806528429915589E-01   3.826231905497673E-01
   3.845633496825776E-01   3.864720723870660E-01   3.883480885360146E-01
   3.901901058416729E-01   3.919968098330919E-01   3.937668638475908E-01
   3.954989090369250E-01   3.971915643887363E-01   3.988434267638758E-01
   4.004530709501982E-01   4.020190497334397E-01   4.035398939857969E-01
   4.050141127728371E-01   4.064401934793767E-01   4.078166019549744E-01
   4.091417826796948E-01   4.104141589508040E-01   4.116321330910690E-01
   4.127940866793371E-01   4.138983808040807E-01   4.149433563405981E-01
   4.159273342525670E-01   4.168486159186506E-01   4.177054834848662E-01
   4.184962002434229E-01   4.192190110387445E-01   4.198721427013942E-01
   4.204538045106178E-01   4.209621886862274E-01   4.213954709105441E-01
   4.217518108811195E-01   4.220293528949561E-01   4.222262264649393E-01
   4.223405469691974E-01   4.223704163340952E-01   4.223139237515650E-01
   4.221691464314723E-01   4.219341503897023E-01   4.216069912726500E-01
   4.211857152187782E-01   4.206683597579058E-01   4.200529547488657E-01
   4.193375233561643E-01   4.185200830662543E-01   4.175986467440143E-01
   4.165712237300125E-01   4.154358209791063E-01   4.141904442409067E-01
   4.128330992826146E-01   4.113617931547036E-01   4.097745354998980E-01
   4.080693399058616E-01   4.062442253019781E-01   4.042972174005705E-01
   4.022263501828625E-01   4.000296674299517E-01   3.977052242990106E-01
   3.952510889448936E-01   3.926653441872739E-01   3.899460892233810E-01
   3.870914413863585E-01   3.840995379491994E-01   3.809685379741558E-01
   3.776966242074574E-01   3.742820050190993E-01   3.707229163873964E-01
   3.670176239279185E-01   3.631644249663482E-01   3.591616506547173E-01
   3.550076681303955E-01   3.507008827171118E-01   3.462397401672013E-01
   3.416227289441682E-01   3.368483825445584E-01   3.319152818580314E-01
   3.268220575644118E-01   3.215673925663896E-01   3.161500244564245E-01
   3.105687480162906E-01   3.048224177475738E-01   2.989099504313132E-01
   2.928303277148435E-01   2.865825987237712E-01   2.801658826968754E-01
   2.735793716415929E-01   2.668223330076067E-01   2.598941123759141E-01
   2.527941361606105E-01   2.455219143204800E-01   2.380770430773385E-01
   2.304592076379319E-01   2.226681849160448E-01   2.147038462513329E-01
   2.065661601212490E-01   1.982551948422913E-01   1.897711212566645E-01
   1.811142154003121E-01   1.722848611481444E-01   1.632835528321638E-01
   1.541108978280708E-01   1.447676191058180E-01   1.352545577394794E-01
   1.255726753717034E-01   1.157230566279335E-01   1.057069114755034E-01
   9.552557752265183E-02   8.518052225244897E-02   7.467334518658834E-02
   6.400577997397422E-02   5.317969639902499E-02   4.219710230461710E-02
   3.106014542461652E-02   1.977111512097973E-02   8.332444020458582E-03
  -3.253290453989967E-03  -1.498336466190713E-02  -2.685490743887180E-02
  -3.886489890949290E-02  -5.101016942435441E-02  -6.328739862528812E-02
  -7.569311464321823E-02  -8.822369343268995E-02  -1.008753582470611E-01
  -1.136441792582098E-01  -1.265260733244918E-01  -1.395168039105752E-01
  -1.526119811626946E-01  -1.658070621427961E-01  -1.790973512250084E-01
  -1.924780006578606E-01  -2.059440112956926E-01  -2.194902335027577E-01
  -2.331113682336116E-01  -2.468019682935144E-01  -2.605564397827322E-01
  -2.743690437288282E-01  -2.882338979112531E-01  -3.021449788827958E-01
  -3.160961241927091E-01  -3.300810348165946E-01  -3.440932777983799E-01
  -3.581262891099595E-01  -3.721733767342726E-01  -3.862277239777450E-01
  -4.002823930181191E-01  -4.143303286937206E-01  -4.283643625401482E-01
  -4.423772170802227E-01  -4.563615103727744E-01  -4.703097608254898E-01
  -4.842143922765618E-01  -4.980677393493140E-01  -5.118620530832718E-01
  -5.255895068443631E-01  -5.392422025160379E-01  -5.528121769721155E-01
  -5.662914088311053E-01  -5.796718254906238E-01  -5.929453104393366E-01
  -6.061037108426335E-01  -6.191388453969747E-01  -6.320425124465696E-01
  -6.448064983547553E-01  -6.574225861211496E-01  -6.698825642343813E-01
  -6.821782357489358E-01  -6.943014275734271E-01  -7.062439999564157E-01
  -7.179978561547363E-01  -7.295549522681988E-01  -7.409073072234731E-01
  -7.520470128889798E-01  -7.629662443016673E-01  -7.736572699856983E-01
  -7.841124623422635E-01  -7.943243080890109E-01  -8.042854187269258E-01
  -8.139885410119128E-01  -8.234265674078315E-01  -8.325925464973105E-01
  -8.414796933263243E-01  -8.500813996582580E-01  -8.583912441130098E-01
  -8.664030021665912E-01  -8.741106559866796E-01  -8.815084040796687E-01
  -8.885906707249225E-01  -8.953521151722066E-01  -9.017876405786116E-01
  -9.078924026617156E-01  -9.136618180462525E-01  -9.190915722821530E-01
  -9.241776275125110E-01  -9.289162297707908E-01  -9.333039158874359E-01
  -9.373375199869547E-01  -9.410141795575488E-01  -9.443313410764042E-01
  -9.472867651748876E-01  -9.498785313290696E-01  -9.521050420622236E-01
  -9.539650266472420E-01  -9.554575442982286E-01  -9.565819868418923E-01
  -9.573380808607697E-01  -9.577258893017161E-01  -9.577458125445567E-01
  -9.573985889272386E-01  -9.566852947252915E-01  -9.556073435848668E-01
  -9.541664854100823E-01  -9.523648047068476E-01  -9.502047183867686E-01
  -9.476889730361390E-01  -9.448206416563912E-01  -9.416031198837208E-01
  -9.380401216968930E-01  -9.341356746234827E-01  -9.298941144560036E-01
  -9.253200794905116E-01  -9.204185043013597E-01  -9.151946130667852E-01
  -9.096539124609675E-01  -9.038021841290705E-01  -8.976454767625882E-01
  -8.911900977930497E-01  -8.844426047230605E-01  -8.774097961120261E-01
  -8.700986997600366E-01  -8.625165559462692E-01  -8.546708123736794E-01
  -8.465691266405754E-01  -8.382193439567376E-01  -8.296294912691353E-01
  -8.208077653472786E-01  -8.117625219487081E-01  -8.025022646764443E-01
  -7.930356337120598E-01  -7.833713944364198E-01  -7.735184259582145E-01
  -7.634857095705559E-01  -7.532823171555174E-01  -7.429173995561115E-01
  -7.324001749347910E-01  -7.217399171371046E-01  -7.109459440817540E-01
  -7.000276061806415E-01  -6.889942748314243E-01  -6.778553309766343E-01
  -6.666201537552988E-01  -6.552981092609157E-01  -6.438985394207805E-01
  -6.324307510111079E-01  -6.209040048218688E-01  -6.093275049847257E-01
  -5.977103884769417E-01  -5.860617148136137E-01  -5.743904559401114E-01
  -5.627054863361333E-01  -5.510155733423324E-01  -5.393293677200292E-01
  -5.276553944541174E-01  -5.160020438088773E-01  -5.043775626460355E-01
  -4.927900460140537E-01  -4.812474290172986E-01  -4.697574789734192E-01
  -4.583277878669608E-01  -4.469657651069495E-01  -4.356786305959054E-01
  -4.244734081174750E-01  -4.133569190496059E-01  -4.023357764099333E-01
  -3.914163792397875E-01  -3.806049073329703E-01  -3.699073163151879E-01
  -3.593293330797500E-01  -3.488764515848629E-01  -3.385539290175451E-01
  -3.283667823288776E-01  -3.183197851449646E-01  -3.084174650576212E-01
  -2.986641012984184E-01  -2.890637227993044E-01  -2.796201066425782E-01
  -2.703367769025151E-01  -2.612170038804388E-01  -2.522638037344896E-01
  -2.434799385047643E-01  -2.348679165338882E-01  -2.264299932824310E-01
  -2.181681725378990E-01  -2.100842080153126E-01  -2.021796053466315E-01
  -1.944556244555079E-01  -1.869132823130325E-01  -1.795533560693059E-01
  -1.723763865548012E-01  -1.653826821446035E-01  -1.585723229777112E-01
  -1.519451655226734E-01  -1.455008474799150E-01  -1.392387930101784E-01
  -1.331582182775860E-01  -1.272581372949116E-01  -1.215373680577423E-01
  -1.159945389533256E-01  -1.106280954290301E-01  -1.054363069045101E-01
  -1.004172739108653E-01  -9.556893543931909E-02  -9.088907648122480E-02
  -8.637533574054206E-02  -8.202521349931502E-02  -7.783607961613499E-02
  -7.380518163708871E-02  -6.992965299828083E-02  -6.620652129868256E-02
  -6.263271662180059E-02  -5.920507988448410E-02  -5.592037119109639E-02
  -5.277527817127451E-02  -4.976642427958447E-02  -4.689037703555599E-02
  -4.414365618284712E-02  -4.152274174664657E-02  -3.902408196887035E-02
  -3.664410110124650E-02  -3.437920703700754E-02  -3.222579876262051E-02
  -3.018027361177741E-02  -2.823903430474035E-02  -2.639849575708147E-02
  -2.465509164287328E-02  -2.300528069846509E-02  -2.144555275411974E-02
  -1.997243448197603E-02  -1.858249485003914E-02  -1.727235027317711E-02
  -1.603866945340903E-02  -1.487817790310171E-02  -1.378766214603990E-02
  -1.276397359269096E-02  -1.180403208734205E-02  -1.090482912613727E-02
  -1.006343074637639E-02  -9.276980088748226E-03  -8.542699635451984E-03
  -7.857893128403208E-03  -7.219947172918270E-03  -6.626332533418005E-03
  -6.074605128779385E-03  -5.562406735989137E-03  -5.087465411709314E-03
  -4.647595642247423E-03  -4.240698233228802E-03  -3.864759950992828E-03
  -3.517852928374636E-03  -3.198133848087998E-03  -2.903842917391467E-03
  -2.633302648097925E-03  -2.384916456277301E-03  -2.157167096203815E-03
  -1.948614943214016E-03  -1.757896140171784E-03  -1.583720622183936E-03
  -1.424870034078035E-03  -1.280195554945969E-03  -1.148615643776974E-03
  -1.029113719856377E-03  -9.207357911963524E-04  -8.225880437976575E-04
  -7.338344040220120E-04  -6.536940857893437E-04  -5.814391337083193E-04
  -5.163919726084306E-04  -4.579229732734426E-04  -4.054480434852047E-04
  -3.584262527796749E-04  -3.163574985992992E-04  -2.787802208032917E-04
  -2.452691707753212E-04  -2.154332406517972E-04  -1.889133574882416E-04
  -1.653804464906913E-04  -1.445334667678701E-04  -1.260975224118201E-04
  -1.098220510931587E-04  -9.547909176514656E-05  -8.286163251082696E-05
  -7.178203904179104E-05  -6.207056386730497E-05  -5.357393569990367E-05
  -4.615402824896764E-05  -3.968660717773548E-05  -3.406015366175875E-05
  -2.917476268773782E-05  -2.494111397029873E-05  -2.127951314023668E-05
  -1.811900066792697E-05  -1.539652583334812E-05  -1.305618293078025E-05
  -1.104850680503047E-05  -9.329824756809084E-06  -7.861661817827630E-06
  -6.610196386226880E-06  -5.545763228485702E-06  -4.642400867634666E-06
  -3.877440641955862E-06  -3.231132703806666E-06  -2.686319202633061E-06
  -2.228095559082941E-06  -1.843615999210021E-06  -1.521799242678039E-06
  -1.253074885417195E-06  -1.029215151203577E-06  -8.431715541631560E-07
  -6.889201917274340E-07  -5.613248525894915E-07  -4.560161626901509E-07
  -3.692851114785821E-07  -2.979894144226353E-07  -2.394712587505050E-07
  -1.914851611154671E-07  -1.521341854474648E-07  -1.198160951391275E-07
  -9.316539151048110E-08  -7.113875746384720E-08  -5.218505170938749E-08
   0.000000000000000E+00   0.000000000000000E+00   0.000000000000000E+00
   0.000000000000000E+00   0.000000000000000E+00   0.000000000000000E+00
   0.000000000000000E+00   0.000000000000000E+00   0.000000000000000E+00
   0.000000000000000E+00   0.000000000000000E+00   0.000000000000000E+00
   0.000000000000000E+00   0.000000000000000E+00   0.000000000000000E+00
   0.000000000000000E+00   0.000000000000000E+00   0.000000000000000E+00
   0.000000000000000E+00   0.000000000000000E+00   0.000000000000000E+00
   0.000000000000000E+00   0.000000000000000E+00   0.000000000000000E+00
   0.000000000000000E+00   0.000000000000000E+00   0.000000000000000E+00
   0.000000000000000E+00   0.000000000000000E+00   0.000000000000000E+00
   0.000000000000000E+00   0.000000000000000E+00   0.000000000000000E+00
   0.000000000000000E+00   0.000000000000000E+00   0.000000000000000E+00
   0.000000000000000E+00   0.000000000000000E+00   0.000000000000000E+00
   0.000000000000000E+00   0.000000000000000E+00   0.000000000000000E+00
   0.000000000000000E+00   0.000000000000000E+00   0.000000000000000E+00
   0.000000000000000E+00   0.000000000000000E+00   0.000000000000000E+00
   0.000000000000000E+00   0.000000000000000E+00   0.000000000000000E+00
   0.000000000000000E+00   0.000000000000000E+00   0.000000000000000E+00
   0.000000000000000E+00   0.000000000000000E+00   0.000000000000000E+00
   0.000000000000000E+00   0.000000000000000E+00   0.000000000000000E+00
   0.000000000000000E+00   0.000000000000000E+00   0.000000000000000E+00
   0.000000000000000E+00   0.000000000000000E+00   0.000000000000000E+00
   0.000000000000000E+00   0.000000000000000E+00   0.000000000000000E+00
   0.000000000000000E+00   0.000000000000000E+00   0.000000000000000E+00
   0.000000000000000E+00   0.000000000000000E+00   0.000000000000000E+00
   0.000000000000000E+00   0.000000000000000E+00   0.000000000000000E+00
   0.000000000000000E+00   0.000000000000000E+00   0.000000000000000E+00
   0.000000000000000E+00   0.000000000000000E+00   0.000000000000000E+00
   0.000000000000000E+00   0.000000000000000E+00   0.000000000000000E+00
   0.000000000000000E+00   0.000000000000000E+00   0.000000000000000E+00
   0.000000000000000E+00   0.000000000000000E+00   0.000000000000000E+00
   0.000000000000000E+00   0.000000000000000E+00   0.000000000000000E+00
   0.000000000000000E+00   0.000000000000000E+00   0.000000000000000E+00
   0.000000000000000E+00   0.000000000000000E+00   0.000000000000000E+00
   0.000000000000000E+00   0.000000000000000E+00   0.000000000000000E+00
   0.000000000000000E+00   0.000000000000000E+00   0.000000000000000E+00
   0.000000000000000E+00   0.000000000000000E+00   0.000000000000000E+00
   0.000000000000000E+00   0.000000000000000E+00   0.000000000000000E+00
   0.000000000000000E+00   0.000000000000000E+00   0.000000000000000E+00
   0.000000000000000E+00   0.000000000000000E+00   0.000000000000000E+00
   0.000000000000000E+00   0.000000000000000E+00   0.000000000000000E+00
   0.000000000000000E+00   0.000000000000000E+00   0.000000000000000E+00
   0.000000000000000E+00   0.000000000000000E+00   0.000000000000000E+00
   0.000000000000000E+00   0.000000000000000E+00   0.000000000000000E+00
   0.000000000000000E+00   0.000000000000000E+00   0.000000000000000E+00
   0.000000000000000E+00   0.000000000000000E+00   0.000000000000000E+00
   0.000000000000000E+00   0.000000000000000E+00   0.000000000000000E+00
   0.000000000000000E+00   0.000000000000000E+00   0.000000000000000E+00
   0.000000000000000E+00   0.000000000000000E+00   0.000000000000000E+00
   0.000000000000000E+00   0.000000000000000E+00   0.000000000000000E+00
   0.000000000000000E+00   0.000000000000000E+00   0.000000000000000E+00
   0.000000000000000E+00   0.000000000000000E+00   0.000000000000000E+00
    </PP_AEWFC.1>
    <PP_AEWFC.2 index="2" label="2S" l="0">
   9.237603108860293E-04   9.353598443032566E-04   9.471050314944250E-04
   9.589977014142936E-04   9.710395635505125E-04   9.832321881541356E-04
   9.955775399873011E-04   1.008077514877310E-03   1.020734047695425E-03
   1.033549097425676E-03   1.046524647433382E-03   1.059662705768748E-03
   1.072965305471850E-03   1.086434504881231E-03   1.100072387946244E-03
   1.113881064543178E-03   1.127862670795208E-03   1.142019369396215E-03
   1.156353349938520E-03   1.170866829244584E-03   1.185562051702705E-03
   1.200441289606778E-03   1.215506843500145E-03   1.230761042523600E-03
   1.246206244767584E-03   1.261844837628627E-03   1.277679238170074E-03
   1.293711893487162E-03   1.309945281076485E-03   1.326381909209897E-03
   1.343024317312908E-03   1.359875076347630E-03   1.376936789200310E-03
   1.394212091073516E-03   1.411703649883026E-03   1.429414166659461E-03
   1.447346375954740E-03   1.465503046253389E-03   1.483886980388768E-03
   1.502501015964278E-03   1.521348025779588E-03   1.540430918261958E-03
   1.559752637902699E-03   1.579316165698835E-03   1.599124519600029E-03
   1.619180754960822E-03   1.639487964998255E-03   1.660049281254922E-03
   1.680867874067532E-03   1.701946953041018E-03   1.723289767528282E-03
   1.744899607115607E-03   1.766779802113832E-03   1.788933724055326E-03
   1.811364786196840E-03   1.834076444028295E-03   1.857072195787579E-03
   1.880355582981409E-03   1.903930190912329E-03   1.927799649211912E-03
   1.951967632380235E-03   1.976437860331685E-03   2.001214098947178E-03
   2.026300160632857E-03   2.051699904885325E-03   2.077417238863505E-03
   2.103456117967185E-03   2.129820546422318E-03   2.156514577873159E-03
   2.183542315981306E-03   2.210907915031711E-03   2.238615580545754E-03
   2.266669569901436E-03   2.295074192960769E-03   2.323833812704460E-03
   2.352952845873924E-03   2.382435763620754E-03   2.412287092163675E-03
   2.442511413453098E-03   2.473113365843335E-03   2.504097644772556E-03
   2.535469003450573E-03   2.567232253554521E-03   2.599392265932534E-03
   2.631953971315473E-03   2.664922361036819E-03   2.698302487760782E-03
   2.732099466218734E-03   2.766318473954028E-03   2.800964752075314E-03
   2.836043606018406E-03   2.871560406316813E-03   2.907520589380995E-03
   2.943929658286454E-03   2.980793183570726E-03   3.018116804039378E-03
   3.055906227581080E-03   3.094167231991864E-03   3.132905665808629E-03
   3.172127449152012E-03   3.211838574578684E-03   3.252045107943189E-03
   3.292753189269402E-03   3.333969033631686E-03   3.375698932045868E-03
   3.417949252370099E-03   3.460726440215702E-03   3.504037019868099E-03
   3.547887595217908E-03   3.592284850702302E-03   3.637235552256732E-03
   3.682746548277085E-03   3.728824770592404E-03   3.775477235448236E-03
   3.822711044500707E-03   3.870533385821438E-03   3.918951534913368E-03
   3.967972855737602E-03   4.017604801751363E-03   4.067854916957160E-03
   4.118730836963236E-03   4.170240290055441E-03   4.222391098280573E-03
   4.275191178541307E-03   4.328648543702825E-03   4.382771303711197E-03
   4.437567666723648E-03   4.493045940250789E-03   4.549214532310912E-03
   4.606081952596429E-03   4.663656813652577E-03   4.721947832068456E-03
   4.780963829680508E-03   4.840713734788529E-03   4.901206583384307E-03
   4.962451520392964E-03   5.024457800927132E-03   5.087234791554004E-03
   5.150791971575396E-03   5.215138934320881E-03   5.280285388454100E-03
   5.346241159292334E-03   5.413016190139426E-03   5.480620543632138E-03
   5.549064403100040E-03   5.618358073939001E-03   5.688511984998377E-03
   5.759536689981981E-03   5.831442868862912E-03   5.904241329312325E-03
   5.977943008142228E-03   6.052558972762376E-03   6.128100422651351E-03
   6.204578690841886E-03   6.282005245420532E-03   6.360391691041719E-03
   6.439749770456290E-03   6.520091366054580E-03   6.601428501424109E-03
   6.683773342921940E-03   6.767138201261790E-03   6.851535533115924E-03
   6.936977942731925E-03   7.023478183564367E-03   7.111049159921464E-03
   7.199703928626735E-03   7.289455700695746E-03   7.380317843027954E-03
   7.472303880113731E-03   7.565427495756568E-03   7.659702534810524E-03
   7.755143004932936E-03   7.851763078352442E-03   7.949577093652318E-03
   8.048599557569170E-03   8.148845146806988E-03   8.250328709866601E-03
   8.353065268890493E-03   8.457070021523055E-03   8.562358342786215E-03
   8.668945786970483E-03   8.776848089541385E-03   8.886081169061278E-03
   8.996661129126525E-03   9.108604260320018E-03   9.221927042179019E-03
   9.336646145178255E-03   9.452778432728305E-03   9.570340963189112E-03
   9.689350991898705E-03   9.809825973216953E-03   9.931783562584376E-03
   1.005524161859588E-02   1.018021820508935E-02   1.030673159324908E-02
   1.043480026372381E-02   1.056444290875939E-02   1.069567843434593E-02
   1.082852596237928E-02   1.096300483283675E-02   1.109913460596688E-02
   1.123693506449324E-02   1.137642621583194E-02   1.151762829432278E-02
   1.166056176347388E-02   1.180524731821955E-02   1.195170588719120E-02
   1.209995863500118E-02   1.225002696453917E-02   1.240193251928105E-02
   1.255569718560990E-02   1.271134309514889E-02   1.286889262710587E-02
   1.302836841062926E-02   1.318979332717502E-02   1.335319051288441E-02
   1.351858336097208E-02   1.368599552412441E-02   1.385545091690740E-02
   1.402697371818405E-02   1.420058837354071E-02   1.437631959772194E-02
   1.455419237707358E-02   1.473423197199353E-02   1.491646391938977E-02
   1.510091403514517E-02   1.528760841658863E-02   1.547657344497196E-02
   1.566783578795198E-02   1.586142240207739E-02   1.605736053527969E-02
   1.625567772936762E-02   1.645640182252454E-02   1.665956095180797E-02
   1.686518355565082E-02   1.707329837636346E-02   1.728393446263591E-02
   1.749712117203956E-02   1.771288817352748E-02   1.793126544993261E-02
   1.815228330046299E-02   1.837597234319317E-02   1.860236351755091E-02
   1.883148808679829E-02   1.906337764050624E-02   1.929806409702155E-02
   1.953557970592531E-02   1.977595705048183E-02   2.001922905007679E-02
   2.026542896264372E-02   2.051459038707753E-02   2.076674726563387E-02
   2.102193388631328E-02   2.128018488522861E-02   2.154153524895466E-02
   2.180602031685854E-02   2.207367578340940E-02   2.234453770046612E-02
   2.261864247954153E-02   2.289602689404148E-02   2.317672808147747E-02
   2.346078354565091E-02   2.374823115880763E-02   2.403910916376080E-02
   2.433345617598044E-02   2.463131118564789E-02   2.493271355967320E-02
   2.523770304367362E-02   2.554631976391119E-02   2.585860422918741E-02
   2.617459733269282E-02   2.649434035380950E-02   2.681787495986413E-02
   2.714524320782937E-02   2.747648754597131E-02   2.781165081544043E-02
   2.815077625180378E-02   2.849390748651564E-02   2.884108854832426E-02
   2.919236386461180E-02   2.954777826266487E-02   2.990737697087272E-02
   3.027120561985032E-02   3.063931024348310E-02   3.101173727989060E-02
   3.138853357230557E-02   3.176974636986553E-02   3.215542332831336E-02
   3.254561251060344E-02   3.294036238741008E-02   3.333972183753435E-02
   3.374374014820595E-02   3.415246701527597E-02   3.456595254329715E-02
   3.498424724548711E-02   3.540740204357100E-02   3.583546826749900E-02
   3.626849765503466E-02   3.670654235120945E-02   3.714965490763928E-02
   3.759788828169817E-02   3.805129583554440E-02   3.850993133499436E-02
   3.897384894823906E-02   3.944310324439829E-02   3.991774919190715E-02
   4.039784215672961E-02   4.088343790039380E-02   4.137459257784312E-02
   4.187136273509785E-02   4.237380530672107E-02   4.288197761308292E-02
   4.339593735741736E-02   4.391574262266471E-02   4.444145186809392E-02
   4.497312392569770E-02   4.551081799635392E-02   4.605459364574650E-02
   4.660451080003840E-02   4.716062974128993E-02   4.772301110261468E-02
   4.829171586306574E-02   4.886680534224438E-02   4.944834119462346E-02
   5.003638540357734E-02   5.063100027511030E-02   5.123224843127484E-02
   5.184019280327148E-02   5.245489662422113E-02   5.307642342160121E-02
   5.370483700933626E-02   5.434020147953388E-02   5.498258119385618E-02
   5.563204077451736E-02   5.628864509489717E-02   5.695245926976036E-02
   5.762354864507160E-02   5.830197878739543E-02   5.898781547287042E-02
   5.968112467574659E-02   6.038197255647482E-02   6.109042544933700E-02
   6.180654984960503E-02   6.253041240021706E-02   6.326207987795865E-02
   6.400161917913676E-02   6.474909730473367E-02   6.550458134502855E-02
   6.626813846367305E-02   6.703983588120806E-02   6.781974085800813E-02
   6.860792067663939E-02   6.940444262361753E-02   7.020937397055113E-02
   7.102278195465614E-02   7.184473375862649E-02   7.267529648984619E-02
   7.351453715892731E-02   7.436252265755852E-02   7.521931973564842E-02
   7.608499497774768E-02   7.695961477873339E-02   7.784324531873971E-02
   7.873595253731729E-02   7.963780210680509E-02   8.054885940489670E-02
   8.146918948638408E-02   8.239885705406064E-02   8.333792642876536E-02
   8.428646151855035E-02   8.524452578695232E-02   8.621218222034978E-02
   8.718949329438670E-02   8.817652093944306E-02   8.917332650513300E-02
   9.017997072381065E-02   9.119651367306329E-02   9.222301473717201E-02
   9.325953256751882E-02   9.430612504191979E-02   9.536284922286302E-02
   9.642976131463019E-02   9.750691661928049E-02   9.859436949147492E-02
   9.969217329211935E-02   1.008003803408043E-01   1.019190418670189E-01
   1.030482079601171E-01   1.041879275180131E-01   1.053382481945834E-01
   1.064992163457528E-01   1.076708769742403E-01   1.088532736729440E-01
   1.100464485669385E-01   1.112504422540641E-01   1.124652937440831E-01
   1.136910403963796E-01   1.149277178561793E-01   1.161753599892664E-01
   1.174339988151715E-01   1.187036644388105E-01   1.199843849805467E-01
   1.212761865046553E-01   1.225790929461657E-01   1.238931260360574E-01
   1.252183052247865E-01   1.265546476041196E-01   1.279021678272514E-01
   1.292608780271832E-01   1.306307877333385E-01   1.320119037863940E-01
   1.334042302513032E-01   1.348077683284898E-01   1.362225162631896E-01
   1.376484692529189E-01   1.390856193530486E-01   1.405339553804623E-01
   1.419934628152793E-01   1.434641237006209E-01   1.449459165404026E-01
   1.464388161951312E-01   1.479427937756903E-01   1.494578165350953E-01
   1.509838477582027E-01   1.525208466493547E-01   1.540687682179470E-01
   1.556275631619026E-01   1.571971777490392E-01   1.587775536963178E-01
   1.603686280469594E-01   1.619703330454207E-01   1.635825960102179E-01
   1.652053392045914E-01   1.668384797050038E-01   1.684819292674649E-01
   1.701355941916802E-01   1.717993751830196E-01   1.734731672123045E-01
   1.751568593734138E-01   1.768503347387110E-01   1.785534702122949E-01
   1.802661363810810E-01   1.819881973637187E-01   1.837195106573563E-01
   1.854599269822628E-01   1.872092901243216E-01   1.889674367754118E-01
   1.907341963716947E-01   1.925093909298270E-01   1.942928348811234E-01
   1.960843349036953E-01   1.978836897525931E-01   1.996906900879851E-01
   2.015051183014065E-01   2.033267483401167E-01   2.051553455296056E-01
   2.069906663942934E-01   2.088324584764708E-01   2.106804601535314E-01
   2.125344004535513E-01   2.143939988692738E-01   2.162589651705626E-01
   2.181289992153895E-01   2.200037907594278E-01   2.218830192643265E-01
   2.237663537047447E-01   2.256534523742301E-01   2.275439626900317E-01
   2.294375209969386E-01   2.313337523702453E-01   2.332322704179461E-01
   2.351326770822685E-01   2.370345624406602E-01   2.389375045063492E-01
   2.408410690286033E-01   2.427448092928209E-01   2.446482659205899E-01
   2.465509666698605E-01   2.484524262353791E-01   2.503521460495428E-01
   2.522496140838361E-01   2.541443046510204E-01   2.560356782082532E-01
   2.579231811613193E-01   2.598062456701690E-01   2.616842894559563E-01
   2.635567156097889E-01   2.654229124033982E-01   2.672822531019550E-01
   2.691340957792563E-01   2.709777831355244E-01   2.728126423180601E-01
   2.746379847450064E-01   2.764531059324837E-01   2.782572853253677E-01
   2.800497861319892E-01   2.818298551630443E-01   2.835967226750129E-01
   2.853496022183904E-01   2.870876904910492E-01   2.888101671970544E-01
   2.905161949112679E-01   2.922049189500833E-01   2.938754672486467E-01
   2.955269502449238E-01   2.971584607709872E-01   2.987690739519044E-01
   3.003578471126205E-01   3.019238196932336E-01   3.034660131730784E-01
   3.049834310040365E-01   3.064750585535054E-01   3.079398630574677E-01
   3.093767935841107E-01   3.107847810084580E-01   3.121627379984835E-01
   3.135095590131884E-01   3.148241203131312E-01   3.161052799839106E-01
   3.173518779731119E-01   3.185627361412341E-01   3.197366583271279E-01
   3.208724304284802E-01   3.219688204978943E-01   3.230245788551195E-01
   3.240384382159947E-01   3.250091138386804E-01   3.259353036877581E-01
   3.268156886167879E-01   3.276489325699209E-01   3.284336828031711E-01
   3.291685701259577E-01   3.298522091635367E-01   3.304831986409486E-01
   3.310601216891084E-01   3.315815461736810E-01   3.320460250473778E-01
   3.324520967263246E-01   3.327982854911507E-01   3.330831019134521E-01
   3.333050433082883E-01   3.334625942133701E-01   3.335542268956019E-01
   3.335784018856389E-01   3.335335685411238E-01   3.334181656392644E-01
   3.332306219994127E-01   3.329693571363052E-01   3.326327819446198E-01
   3.322192994155000E-01   3.317273053856954E-01   3.311551893199547E-01
   3.305013351273101E-01   3.297641220118715E-01   3.289419253587509E-01
   3.280331176557170E-01   3.270360694511740E-01   3.259491503490418E-01
   3.247707300410986E-01   3.234991793773340E-01   3.221328714748384E-01
   3.206701828657356E-01   3.191094946846435E-01   3.174491938961255E-01
   3.156876745625657E-01   3.138233391528782E-01   3.118545998924257E-01
   3.097798801544954E-01   3.075976158936424E-01   3.053062571211768E-01
   3.029042694230283E-01   3.003901355201861E-01   2.977623568718616E-01
   2.950194553214782E-01   2.921599747855449E-01   2.891824829854123E-01
   2.860855732218604E-01   2.828678661924061E-01   2.795280118511587E-01
   2.760646913109868E-01   2.724766187876942E-01   2.687625435858280E-01
   2.649212521256756E-01   2.609515700109223E-01   2.568523641363681E-01
   2.526225448350131E-01   2.482610680637389E-01   2.437669376267215E-01
   2.391392074356166E-01   2.343769838054656E-01   2.294794277851681E-01
   2.244457575212651E-01   2.192752506536736E-01   2.139672467419028E-01
   2.085211497201728E-01   2.029364303797443E-01   1.972126288766514E-01
   1.913493572629126E-01   1.853463020391776E-01   1.792032267266462E-01
   1.729199744559739E-01   1.664964705707591E-01   1.599327252430828E-01
   1.532288360984508E-01   1.463849908473677E-01   1.394014699206507E-01
   1.322786491054773E-01   1.250170021790386E-01   1.176171035365654E-01
   1.100796308103799E-01   1.024053674765232E-01   9.459520544541117E-02
   8.665014763287485E-02   7.857131050785708E-02   7.035992661295615E-02
   6.201734705393522E-02   5.354504395425373E-02   4.494461287062135E-02
   3.621777516553162E-02   2.736638033269666E-02   1.839240827128006E-02
   9.297971504811337E-03   8.531734066111722E-05  -9.243170034036619E-03
  -1.868496752411305E-02  -2.823741116981580E-02  -3.789769426602152E-02
  -4.766286556120794E-02  -5.752982754013754E-02  -6.749533479415597E-02
  -7.755599248295830E-02  -8.770825489162684E-02  -9.794842408670036E-02
  -1.082726486749972E-01  -1.186769226688891E-01  -1.291570844617100E-01
  -1.397088159169925E-01  -1.503276415752491E-01  -1.610089279820716E-01
  -1.717478831414008E-01  -1.825395560979275E-01  -1.933788366527309E-01
  -2.042604552164344E-01  -2.151789828043639E-01  -2.261288311784340E-01
  -2.371042531407525E-01  -2.480993429842220E-01  -2.591080371057231E-01
  -2.701241147877868E-01  -2.811411991549746E-01  -2.921527583115049E-01
  -3.031521066669524E-01  -3.141324064571165E-01  -3.250866694673741E-01
  -3.360077589660098E-01  -3.468883918551248E-01  -3.577211410467646E-01
  -3.684984380718690E-01  -3.792125759295172E-01  -3.898557121837307E-01
  -4.004198723147838E-01  -4.108969533315731E-01  -4.212787276511042E-01
  -4.315568472505765E-01  -4.417228480968869E-01  -4.517681548576398E-01
  -4.616840858969501E-01  -4.714618585584741E-01  -4.810925947371960E-01
  -4.905673267405661E-01  -4.998770034386160E-01  -5.090124967016983E-01
  -5.179646081235114E-01  -5.267240760260797E-01  -5.352815827423881E-01
  -5.436277621714029E-01  -5.517532075992854E-01  -5.596484797796896E-01
  -5.673041152651683E-01  -5.747106349808835E-01  -5.818585530310244E-01
  -5.887383857276021E-01  -5.953406608305974E-01  -6.016559269878082E-01
  -6.076747633621612E-01  -6.133877894337344E-01  -6.187856749632863E-01
  -6.238591501036841E-01  -6.285990156453052E-01  -6.329961533812205E-01
  -6.370415365777826E-01  -6.407262405361165E-01  -6.440414532299683E-01
  -6.469784860053921E-01  -6.495287843278543E-01  -6.516839385625118E-01
  -6.534356947736728E-01  -6.547759655297719E-01  -6.556968407006010E-01
  -6.561905982340053E-01  -6.562497148998122E-01  -6.558668769893852E-01
  -6.550349909598812E-01  -6.537471940130658E-01  -6.519968645993600E-01
  -6.497776328386903E-01  -6.470833908506635E-01  -6.439083029875999E-01
  -6.402468159650093E-01  -6.360936688852070E-01  -6.314439031509088E-01
  -6.262928722668265E-01  -6.206362515284930E-01  -6.144700475987821E-01
  -6.077906079738341E-01  -6.005946303413515E-01  -5.928791718354927E-01
  -5.846416581938328E-01  -5.758798928231036E-01  -5.665920657816219E-01
  -5.567767626875111E-01  -5.464329735629377E-01  -5.355601016256869E-01
  -5.241579720404163E-01  -5.122268406428949E-01  -4.997674026514093E-01
  -4.867808013803152E-01  -4.732686369714160E-01  -4.592329751594365E-01
  -4.446763560883475E-01  -4.296018031956523E-01  -4.140128321819726E-01
  -3.979134600833603E-01  -3.813082144636992E-01  -3.642021427443459E-01
  -3.466008216877755E-01  -3.285103670517872E-01  -3.099374434273099E-01
  -2.908892734430887E-01  -2.713736457238188E-01  -2.513989273434979E-01
  -2.309740789874262E-01  -2.101086617647973E-01  -1.888128501595601E-01
  -1.670974431533766E-01  -1.449738760568293E-01  -1.224542325415962E-01
  -9.955125692898133E-02  -7.627836672451509E-02  -5.264966538806599E-02
  -2.867995532539636E-02  -4.384751083151731E-03   2.021970727489858E-02
   4.511644063698259E-02   7.028771718911178E-02   9.571503867378596E-02
   1.213791266030821E-01   1.472599084730660E-01   1.733365040321997E-01
   1.995872116624166E-01   2.259894949377889E-01   2.525199694322326E-01
   2.791543898544622E-01   3.058676375954353E-01   3.326337087808049E-01
   3.594257029284121E-01   3.862158123186172E-01   4.129753121932517E-01
   4.396745519072018E-01   4.662829471650695E-01   4.927689734839855E-01
   5.191001610324913E-01   5.452430910044119E-01   5.711633936958210E-01
   5.968257484625120E-01   6.221938857448370E-01   6.472305913563086E-01
   6.718977132419790E-01   6.961561709222637E-01   7.199659678475369E-01
   7.432862068984675E-01   7.660751092766166E-01   7.882900370392640E-01
   8.098875195416978E-01   8.308232840592330E-01   8.510522908699725E-01
   8.705287730876854E-01   8.892062815421060E-01   9.070377350113392E-01
   9.239754761178165E-01   9.399713332052609E-01   9.549766885192876E-01
   9.689425530184509E-01   9.818196481456233E-01   9.935584948913966E-01
   1.004109510481578E+00   1.013423113019629E+00   1.021449834411887E+00
   1.028140441898394E+00   1.033446068504947E+00   1.037318352722287E+00
   1.039709587705988E+00   1.040572880275252E+00   1.039862319970185E+00
   1.037533158404986E+00   1.033541999128388E+00   1.027846998172430E+00
   1.020408075435726E+00   1.011187137007591E+00   1.000148308494179E+00
   9.872581793568158E-01   9.724860582155906E-01   9.558042390074953E-01
   9.371882778175618E-01   9.166172801231033E-01   8.940741981048241E-01
   8.695461375837783E-01   8.430246740394824E-01   8.145061770514547E-01
   7.839921423836358E-01   7.514895307981407E-01   7.170111125411942E-01
   6.805758162895936E-01   6.422090811803054E-01   6.019432103686225E-01
   5.598177243715163E-01   5.158797122523432E-01   4.701841784909581E-01
   4.227943831596901E-01   3.737821727908718E-01   3.232282990761375E-01
   2.712227222821955E-01   2.178648960030978E-01   1.632640295963139E-01
   1.075393243705438E-01   5.082017930889923E-02  -6.753638176127789E-03
  -6.503186124718048E-02  -1.238536374826393E-01  -1.830474929096085E-01
  -2.424313518558603E-01  -3.018126185038538E-01  -3.609883262678809E-01
  -4.197453613292244E-01  -4.778607668477952E-01  -5.351021345152389E-01
  -5.912280902164134E-01  -6.459888806151833E-01  -6.991270674676087E-01
  -7.503783363810493E-01  -7.994724265708973E-01  -8.461341879062960E-01
  -8.900847711702913E-01  -9.310429569757227E-01  -9.687266281625301E-01
  -1.002854389741294E+00  -1.033147339527639E+00  -1.059330991518303E+00
  -1.081137352777997E+00  -1.098307153122517E+00  -1.110592225184618E+00
  -1.117758030522197E+00  -1.119586325262240E+00  -1.115877956359203E+00
  -1.106455776875848E+00  -1.091167665763798E+00  -1.069889634429448E+00
  -1.042528998921971E+00  -1.009027592882731E+00  -9.693649924640906E-01
  -9.235617202821467E-01  -8.716823911417660E-01  -8.138387578021509E-01
  -7.501926104855630E-01  -6.809584792305914E-01  -6.064060836264130E-01
  -5.268624700210982E-01  -4.427137720745088E-01  -3.544065266390919E-01
  -2.624484735298481E-01  -1.674087649338931E-01  -6.991750817235924E-02
   2.933543555934332E-02   1.296024737899583E-01   2.300812026196809E-01
   3.299182967518381E-01   4.282144378754814E-01   5.240303427705761E-01
   6.163939434549424E-01   7.043087601556614E-01   7.867634936536674E-01
   8.627428464260639E-01   9.312395618343623E-01   9.912676472582175E-01
   1.041876720487541E+00   1.082167388863551E+00   1.111307537687194E+00
   1.128549368476732E+00   1.133246989056962E+00   1.124874316636069E+00
   1.103043012559038E+00   1.067520124072971E+00   1.018245065135803E+00
   9.553455261769969E-01   8.791518631115314E-01   7.902094803591561E-01
   6.892886928769784E-01   5.773915302175416E-01   4.557549334943723E-01
   3.258497961335970E-01   1.893753137782202E-01   4.824814009742252E-02
  -9.541410412113993E-02  -2.393153490814308E-01  -3.810099060986618E-01
  -5.179377738023317E-01  -6.474664374376771E-01  -7.669390045878105E-01
  -8.737283206746168E-01  -9.652964828621200E-01  -1.039258924199773E+00
  -1.093451975068790E+00  -1.126007811276202E+00  -1.135436013039101E+00
  -1.120669371726942E+00  -1.081103917219725E+00  -1.016703113977794E+00
  -9.280279623035232E-01  -8.162813804260174E-01  -6.833323065748270E-01
  -5.317236146051074E-01  -3.646604619310324E-01  -1.859767857117229E-01
  -7.806900648970655E-05   1.881409267945582E-01   3.734040225579782E-01
   5.501867301935839E-01   7.128732080856768E-01   8.559344695925620E-01
   9.741239523178415E-01   1.062685190794714E+00   1.117564957078900E+00
   1.135623908741130E+00   1.114835590547615E+00   1.054463664318820E+00
   9.552065890069465E-01   8.192987423580339E-01   6.505572683158295E-01
   4.543648449171985E-01   2.375801748497907E-01   8.370359703198445E-03
  -2.240375504845691E-01  -4.496846628089166E-01  -6.582822859864894E-01
  -8.396771239409625E-01  -9.843634391068160E-01  -1.084020583340602E+00
  -1.132049190914649E+00  -1.124074957679121E+00  -1.058385752286215E+00
  -9.362662999841352E-01  -7.621953162633471E-01  -5.438731635875728E-01
  -2.920541759191393E-01  -2.016690515556497E-02   2.562823553518034E-01
   5.205126286569001E-01   7.554508884747212E-01   9.448492597142356E-01
   1.074473891605207E+00   1.133286407471817E+00   1.114526099926792E+00
   1.016593669318341E+00   8.436371462408156E-01   6.057492965015243E-01
   3.187043976752968E-01   3.191188120358357E-03  -3.164625603429148E-01
  -6.140317575495476E-01  -8.635083266513011E-01  -1.041442287515527E+00
  -1.129316396497537E+00  -1.115724952260758E+00  -9.981088462994125E-01
  -7.838041157329587E-01  -4.901948129705746E-01  -1.438252532645332E-01
   2.215793594915923E-01   5.681163760802999E-01   8.575320890139732E-01
   1.055535354219256E+00   1.136144792811038E+00   1.085534339611056E+00
   9.048161474811963E-01   6.112460781307040E-01   2.374646596006614E-01
  -1.714051460713851E-01  -5.627061190145480E-01  -8.828277981676252E-01
  -1.084692329579350E+00  -1.135154238978429E+00  -1.021167423505766E+00
  -7.535743688474137E-01  -3.675670247613907E-01   8.073490217110676E-02
   5.215701322585070E-01   8.819857303759231E-01   1.098060797808255E+00
   1.126949472373428E+00   9.564883770863088E-01   6.101976311492290E-01
   1.460425664382763E-01  -3.516951594661135E-01  -7.867742985559532E-01
  -1.069483445134248E+00  -1.135913254700425E+00  -9.639139094095268E-01
  -5.816911131733706E-01  -6.601214893640009E-02   4.710522922966881E-01
   9.053151882879144E-01   1.129313459607367E+00   1.080348480106706E+00
   7.603759929754567E-01   2.413153403617962E-01  -3.477591709771191E-01
  -8.506047365803709E-01  -1.124937211752173E+00  -1.084347296637757E+00
  -7.286376471467068E-01  -1.516580391388742E-01   4.790564125013042E-01
   9.684007550628326E-01   1.154178142117884E+00   9.637174850810245E-01
   4.466083012526755E-01  -2.314309988086329E-01  -8.369700756066467E-01
  -1.147812525642227E+00  -1.037026330601113E+00  -5.302249194115558E-01
   1.905364826475019E-01   8.456096686567498E-01   1.163980380462237E+00
   9.984562051237028E-01   4.007631650952293E-01  -3.829647053074184E-01
  -1.005931538354344E+00  -1.172736003251296E+00  -7.851166143062783E-01
  -8.537130285352605E-03   7.858087512251085E-01   1.192103095175521E+00
   9.802332220545376E-01   2.368593362779000E-01  -6.518380684749261E-01
  -1.189885782751575E+00  -1.048991450107663E+00  -2.808191098627085E-01
   6.764620846117384E-01   1.233451807815731E+00   1.012569205000077E+00
   1.187628072815148E-01  -8.805148587705794E-01  -1.298928659462854E+00
  -8.060473973908926E-01   2.923344204281716E-01   1.210995584562534E+00
   1.232521688134550E+00   2.802915483310205E-01  -9.419775524925833E-01
  -1.436988907931339E+00  -7.257325327155265E-01   6.650944694053722E-01
   1.538767287805328E+00   1.037717769759143E+00  -4.938304727616333E-01
  -1.661029228376935E+00  -1.246335791504350E+00   5.084968816443513E-01
   1.902074621416007E+00   1.353848939224560E+00  -8.055953611826415E-01
  -2.322732841990292E+00  -1.268479486580933E+00   1.541537584161812E+00
   2.898412979374808E+00   7.084266611183366E-01  -2.930705441862199E+00
  -3.357644593255608E+00   9.314537285070097E-01   5.076771102782309E+00
   2.793442326426269E+00  -4.626713250735358E+00  -7.318137757144687E+00
    </PP_AEWFC.2>
    <PP_AEWFC.3 index="3" label="2P" l="1">
   3.073762129184385E-07   3.138425954929019E-07   3.204450136545122E-07
   3.271863292322368E-07   3.340783772050666E-07   3.411432325217646E-07
   3.483798504398386E-07   3.557930606563657E-07   3.633868355818067E-07
   3.711652454777368E-07   3.791324622513150E-07   3.872927618025736E-07
   3.956505264786721E-07   4.042102476106879E-07   4.129765281129361E-07
   4.219540851487966E-07   4.311477528644992E-07   4.405624851925512E-07
   4.502033587265225E-07   4.600755756689504E-07   4.701844668541678E-07
   4.805354948479067E-07   4.911342571255754E-07   5.019864893311569E-07
   5.130980686187228E-07   5.244750170786130E-07   5.361235052503772E-07
   5.480498557246328E-07   5.602605468360455E-07   5.727622164496966E-07
   5.855616658431554E-07   5.986658636866387E-07   6.120819501236958E-07
   6.258172409549201E-07   6.398792319272514E-07   6.542756031315014E-07
   6.690142235107946E-07   6.841031554826923E-07   6.995506596778293E-07
   7.153651997979757E-07   7.315554475964948E-07   7.481302879842574E-07
   7.650988242641409E-07   7.824703834973241E-07   8.002545220046670E-07
   8.184610310065532E-07   8.370999424046505E-07   8.561815347091370E-07
   8.757163391150293E-07   8.957151457313367E-07   9.161890099668654E-07
   9.371492590765881E-07   9.586074988725931E-07   9.805756206037315E-07
   1.003065808008180E-06   1.026090544543246E-06   1.049662620796856E-06
   1.073795142085250E-06   1.098501536241583E-06   1.123795561600167E-06
   1.149691315181275E-06   1.176203241081530E-06   1.203346139075007E-06
   1.231135173430337E-06   1.259585881949219E-06   1.288714185231873E-06
   1.318536396175131E-06   1.349069229708979E-06   1.380329812777524E-06
   1.412335694570507E-06   1.445104857011633E-06   1.478655725510152E-06
   1.513007179982280E-06   1.548178566149220E-06   1.584189707118700E-06
   1.621060915257139E-06   1.658813004359715E-06   1.697467302125784E-06
   1.737045662947313E-06   1.777570481018150E-06   1.819064703772169E-06
   1.861551845658526E-06   1.905056002262470E-06   1.949601864780343E-06
   1.995214734857661E-06   2.041920539799340E-06   2.089745848161411E-06
   2.138717885733743E-06   2.188864551923584E-06   2.240214436549948E-06
   2.292796837059116E-06   2.346641776171817E-06   2.401780019972867E-06
   2.458243096454348E-06   2.516063314523685E-06   2.575273783488235E-06
   2.635908433028326E-06   2.698002033670957E-06   2.761590217776687E-06
   2.826709501052550E-06   2.893397304604153E-06   2.961691977540438E-06
   3.031632820144946E-06   3.103260107627718E-06   3.176615114472384E-06
   3.251740139393305E-06   3.328678530918016E-06   3.407474713610617E-06
   3.488174214952109E-06   3.570823692894123E-06   3.655470964102844E-06
   3.742165032910392E-06   3.830956120991340E-06   3.921895697782462E-06
   4.015036511664309E-06   4.110432621923620E-06   4.208139431516069E-06
   4.308213720649357E-06   4.410713681207097E-06   4.515698952034521E-06
   4.623230655107491E-06   4.733371432606886E-06   4.846185484920945E-06
   4.961738609598733E-06   5.080098241278453E-06   5.201333492614937E-06
   5.325515196231214E-06   5.452715947719738E-06   5.583010149719411E-06
   5.716474057095248E-06   5.853185823248178E-06   5.993225547583125E-06
   6.136675324164271E-06   6.283619291587068E-06   6.434143684097306E-06
   6.588336883988328E-06   6.746289475308215E-06   6.908094298909551E-06
   7.073846508875238E-06   7.243643630354571E-06   7.417585618844719E-06
   7.595774920953550E-06   7.778316536680697E-06   7.965318083254605E-06
   8.156889860564276E-06   8.353144918225387E-06   8.554199124321391E-06
   8.760171235861273E-06   8.971182970996596E-06   9.187359083041601E-06
   9.408827436341134E-06   9.635719084032282E-06   9.868168347746812E-06
   1.010631289930254E-05   1.035029384443305E-05   1.060025580860637E-05
   1.085634702498435E-05   1.111871942457603E-05   1.138752872863917E-05
   1.166293454338599E-05   1.194510045704998E-05   1.223419413937249E-05
   1.253038744356896E-05   1.283385651083630E-05   1.314478187746432E-05
   1.346334858461568E-05   1.378974629084050E-05   1.412416938739324E-05
   1.446681711642128E-05   1.481789369209607E-05   1.517760842475993E-05
   1.554617584816271E-05   1.592381584986492E-05   1.631075380488560E-05
   1.670722071267485E-05   1.711345333749347E-05   1.752969435228353E-05
   1.795619248611626E-05   1.839320267530537E-05   1.884098621827640E-05
   1.929981093428455E-05   1.976995132607600E-05   2.025168874658985E-05
   2.074531156980027E-05   2.125111536580079E-05   2.176940308023527E-05
   2.230048521818240E-05   2.284468003260348E-05   2.340231371746558E-05
   2.397372060565517E-05   2.455924337179984E-05   2.515923324011884E-05
   2.577405019742586E-05   2.640406321141065E-05   2.704965045432892E-05
   2.771119953223339E-05   2.838910771988173E-05   2.908378220146065E-05
   2.979564031726866E-05   3.052510981650348E-05   3.127262911630352E-05
   3.203864756719671E-05   3.282362572511314E-05   3.362803563012224E-05
   3.445236109205901E-05   3.529709798320721E-05   3.616275453821242E-05
   3.704985166140097E-05   3.795892324168588E-05   3.889051647524455E-05
   3.984519219615787E-05   4.082352521520473E-05   4.182610466701045E-05
   4.285353436575266E-05   4.390643316963280E-05   4.498543535432634E-05
   4.609119099563016E-05   4.722436636153035E-05   4.838564431391933E-05
   4.957572472019646E-05   5.079532487499170E-05   5.204517993225812E-05
   5.332604334798411E-05   5.463868733378271E-05   5.598390332162127E-05
   5.736250243996081E-05   5.877531600158110E-05   6.022319600337362E-05
   6.170701563839147E-05   6.322766982045202E-05   6.478607572159491E-05
   6.638317332270540E-05   6.801992597762002E-05   6.969732099103914E-05
   7.141637021057852E-05   7.317811063329975E-05   7.498360502706734E-05
   7.683394256708850E-05   7.873023948799969E-05   8.067363975187268E-05
   8.266531573252156E-05   8.470646891650069E-05   8.679833062119309E-05
   8.894216273039760E-05   9.113925844783264E-05   9.339094306898453E-05
   9.569857477173741E-05   9.806354542623262E-05   1.004872814244149E-04
   1.029712445297347E-04   1.055169327474839E-04   1.081258812162577E-04
   1.107996631210406E-04   1.135398906284328E-04   1.163482158445379E-04
   1.192263317960513E-04   1.221759734350955E-04   1.251989186683652E-04
   1.282969894111540E-04   1.314720526668516E-04   1.347260216325091E-04
   1.380608568310883E-04   1.414785672710197E-04   1.449812116337135E-04
   1.485708994896767E-04   1.522497925439088E-04   1.560201059112600E-04
   1.598841094224546E-04   1.638441289614935E-04   1.679025478351709E-04
   1.720618081754511E-04   1.763244123754727E-04   1.806929245599611E-04
   1.851699720908491E-04   1.897582471089221E-04   1.944605081123227E-04
   1.992795815727691E-04   2.042183635903575E-04   2.092798215878400E-04
   2.144669960452882E-04   2.197830022760732E-04   2.252310322451106E-04
   2.308143564303426E-04   2.365363257284485E-04   2.424003734057959E-04
   2.484100170956678E-04   2.545688608428232E-04   2.608805971964686E-04
   2.673490093527448E-04   2.739779733478538E-04   2.807714603029750E-04
   2.877335387221459E-04   2.948683768443038E-04   3.021802450507150E-04
   3.096735183290376E-04   3.173526787952962E-04   3.252223182750677E-04
   3.332871409452096E-04   3.415519660374855E-04   3.500217306054713E-04
   3.587014923561573E-04   3.675964325476854E-04   3.767118589546920E-04
   3.860532089027600E-04   3.956260523735070E-04   4.054360951818755E-04
   4.154891822272149E-04   4.257913008197822E-04   4.363485840843190E-04
   4.471673144423924E-04   4.582539271752272E-04   4.696150140687833E-04
   4.812573271428717E-04   4.931877824661360E-04   5.054134640587600E-04
   5.179416278848009E-04   5.307797059360807E-04   5.439353104096100E-04
   5.574162379805476E-04   5.712304741727496E-04   5.853861978289865E-04
   5.998917856829569E-04   6.147558170352585E-04   6.299870785355218E-04
   6.455945690729497E-04   6.615875047775465E-04   6.779753241343661E-04
   6.947676932131436E-04   7.119745110157230E-04   7.296059149437357E-04
   7.476722863890224E-04   7.661842564493441E-04   7.851527117719611E-04
   8.045888005277153E-04   8.245039385182843E-04   8.449098154193310E-04
   8.658184011623116E-04   8.872419524577548E-04   9.091930194628698E-04
   9.316844525963879E-04   9.547294095035887E-04   9.783413621745128E-04
   1.002534104218405E-03   1.027321758297487E-03   1.052718783723193E-03
   1.078739984218080E-03   1.105400515846625E-03   1.132715895118225E-03
   1.160702007265716E-03   1.189375114702813E-03   1.218751865663897E-03
   1.248849303029630E-03   1.279684873341953E-03   1.311276436012009E-03
   1.343642272724671E-03   1.376801097043304E-03   1.410772064218529E-03
   1.445574781204741E-03   1.481229316888208E-03   1.517756212530629E-03
   1.555176492432059E-03   1.593511674817168E-03   1.632783782948847E-03
   1.673015356473207E-03   1.714229463000084E-03   1.756449709923173E-03
   1.799700256483998E-03   1.844005826083934E-03   1.889391718848548E-03
   1.935883824448579E-03   1.983508635181892E-03   2.032293259320803E-03
   2.082265434729186E-03   2.133453542753825E-03   2.185886622394495E-03
   2.239594384757302E-03   2.294607227795819E-03   2.350956251344603E-03
   2.408673272449701E-03   2.467790841000760E-03   2.528342255669403E-03
   2.590361580158523E-03   2.653883659767196E-03   2.718944138275889E-03
   2.785579475156691E-03   2.853826963113261E-03   2.923724745955231E-03
   2.995311836811768E-03   3.068628136689023E-03   3.143714453376166E-03
   3.220612520704729E-03   3.299365018165907E-03   3.380015590890524E-03
   3.462608869996276E-03   3.547190493306884E-03   3.633807126447730E-03
   3.722506484322524E-03   3.813337352975503E-03   3.906349611843603E-03
   4.001594256403015E-03   4.099123421214442E-03   4.198990403371330E-03
   4.301249686355253E-03   4.405956964302586E-03   4.513169166686440E-03
   4.622944483417825E-03   4.735342390369823E-03   4.850423675328494E-03
   4.968250464374087E-03   5.088886248695993E-03   5.212395911844787E-03
   5.338845757424464E-03   5.468303537227914E-03   5.600838479818440E-03
   5.736521319559965E-03   5.875424326098411E-03   6.017621334296445E-03
   6.163187774623686E-03   6.312200704004143E-03   6.464738837122449E-03
   6.620882578190219E-03   6.780714053173553E-03   6.944317142482446E-03
   7.111777514122585E-03   7.283182657309641E-03   7.458621916545904E-03
   7.638186526158737E-03   7.821969645299940E-03   8.010066393404767E-03
   8.202573886108939E-03   8.399591271621572E-03   8.601219767551502E-03
   8.807562698184036E-03   9.018725532204716E-03   9.234815920866137E-03
   9.455943736593378E-03   9.682221112023073E-03   9.913762479470560E-03
   1.015068461081900E-02   1.039310665782370E-02   1.064115019282434E-02
   1.089493924985701E-02   1.115460036615741E-02   1.142026262404578E-02
   1.169205769318347E-02   1.197011987319014E-02   1.225458613661003E-02
   1.254559617221473E-02   1.284329242862903E-02   1.314782015826575E-02
   1.345932746155432E-02   1.377796533144696E-02   1.410388769818564E-02
   1.443725147431143E-02   1.477821659989741E-02   1.512694608798486E-02
   1.548360607020139E-02   1.584836584253869E-02   1.622139791126625E-02
   1.660287803895617E-02   1.699298529059309E-02   1.739190207974180E-02
   1.779981421474379E-02   1.821691094491280E-02   1.864338500669773E-02
   1.907943266978013E-02   1.952525378307167E-02   1.998105182057584E-02
   2.044703392707616E-02   2.092341096361183E-02   2.141039755270006E-02
   2.190821212326242E-02   2.241707695521108E-02   2.293721822364883E-02
   2.346886604263490E-02   2.401225450846700E-02   2.456762174242770E-02
   2.513520993294142E-02   2.571526537708662E-02   2.630803852140507E-02
   2.691378400194861E-02   2.753276068350112E-02   2.816523169791176E-02
   2.881146448147267E-02   2.947173081127259E-02   3.014630684045526E-02
   3.083547313230893E-02   3.153951469311122E-02   3.225872100365092E-02
   3.299338604934567E-02   3.374380834887219E-02   3.451029098122280E-02
   3.529314161109975E-02   3.609267251255563E-02   3.690920059078597E-02
   3.774304740197688E-02   3.859453917110830E-02   3.946400680760991E-02
   4.035178591876468E-02   4.125821682075143E-02   4.218364454721509E-02
   4.312841885525070E-02   4.409289422868352E-02   4.507742987852523E-02
   4.608238974048275E-02   4.710814246939337E-02   4.815506143045666E-02
   4.922352468713051E-02   5.031391498555580E-02   5.142661973537063E-02
   5.256203098677229E-02   5.372054540368199E-02   5.490256423286387E-02
   5.610849326884732E-02   5.733874281449781E-02   5.859372763707908E-02
   5.987386691964577E-02   6.117958420760308E-02   6.251130735026679E-02
   6.386946843725383E-02   6.525450372953122E-02   6.666685358494760E-02
   6.810696237806940E-02   6.957527841414037E-02   7.107225383698132E-02
   7.259834453064318E-02   7.415401001462521E-02   7.573971333246690E-02
   7.735592093352016E-02   7.900310254770634E-02   8.068173105306035E-02
   8.239228233586228E-02   8.413523514315552E-02   8.591107092744818E-02
   8.772027368339384E-02   8.956332977624619E-02   9.144072776188107E-02
   9.335295819817870E-02   9.530051344755840E-02   9.728388747045801E-02
   9.930357560954965E-02   1.013600743644845E-01   1.034538811569593E-01
   1.055854940858979E-01   1.077554116725442E-01   1.099641325952616E-01
   1.122121554138386E-01   1.144999782831022E-01   1.168280986556407E-01
   1.191970129734466E-01   1.216072163482881E-01   1.240592022306247E-01
   1.265534620668891E-01   1.290904849449584E-01   1.316707572276481E-01
   1.342947621740652E-01   1.369629795486676E-01   1.396758852178810E-01
   1.424339507341364E-01   1.452376429071986E-01   1.480874233626662E-01
   1.509837480875355E-01   1.539270669627320E-01   1.569178232825240E-01
   1.599564532607489E-01   1.630433855237941E-01   1.661790405902923E-01
   1.693638303375048E-01   1.725981574543846E-01   1.758824148813289E-01
   1.792169852366489E-01   1.826022402298077E-01   1.860385400614929E-01
   1.895262328106184E-01   1.930656538083701E-01   1.966571249994343E-01
   2.003009542905748E-01   2.039974348867497E-01   2.077468446149882E-01
   2.115494452362738E-01   2.154054817457133E-01   2.193151816612988E-01
   2.232787543016047E-01   2.272963900527910E-01   2.313682596253220E-01
   2.354945133008405E-01   2.396752801696749E-01   2.439106673594929E-01
   2.482007592556515E-01   2.525456167138309E-01   2.569452762655769E-01
   2.613997493174170E-01   2.659090213442496E-01   2.704730510777485E-01
   2.750917696905604E-01   2.797650799771116E-01   2.844928555318785E-01
   2.892749399260116E-01   2.941111458832410E-01   2.990012544560228E-01
   3.039450142029223E-01   3.089421403682591E-01   3.139923140650698E-01
   3.190951814624707E-01   3.242503529785286E-01   3.294574024797681E-01
   3.347158664884638E-01   3.400252433988796E-01   3.453849927036303E-01
   3.507945342313451E-01   3.562532473968193E-01   3.617604704648338E-01
   3.673154998288212E-01   3.729175893055383E-01   3.785659494468955E-01
   3.842597468700667E-01   3.899981036069762E-01   3.957800964742303E-01
   4.016047564645210E-01   4.074710681604888E-01   4.133779691719879E-01
   4.193243495976462E-01   4.253090515115633E-01   4.313308684759379E-01
   4.373885450803628E-01   4.434807765084759E-01   4.496062081326085E-01
   4.557634351370289E-01   4.619510021703449E-01   4.681674030276023E-01
   4.744110803626053E-01   4.806804254309819E-01   4.869737778645394E-01
   4.932894254774910E-01   4.996256041051957E-01   5.059804974761417E-01
   5.123522371180116E-01   5.187389022988141E-01   5.251385200042350E-01
   5.315490649525608E-01   5.379684596487631E-01   5.443945744795847E-01
   5.508252278517589E-01   5.572581863757938E-01   5.636911650980826E-01
   5.701218277844279E-01   5.765477872584138E-01   5.829666057983843E-01
   5.893757955971122E-01   5.957728192885369E-01   6.021550905462119E-01
   6.085199747583273E-01   6.148647897843375E-01   6.211868067983367E-01
   6.274832512243683E-01   6.337513037688162E-01   6.399881015549272E-01
   6.461907393643211E-01   6.523562709900813E-01   6.584817107056782E-01
   6.645640348535614E-01   6.706001835567786E-01   6.765870625564345E-01
   6.825215451772165E-01   6.884004744225800E-01   6.942206652005164E-01
   6.999789066801482E-01   7.056719647786889E-01   7.112965847776065E-01
   7.168494940661271E-01   7.223274050095319E-01   7.277270179390311E-01
   7.330450242593514E-01   7.382781096695613E-01   7.434229574920695E-01
   7.484762521041797E-01   7.534346824660688E-01   7.582949457385769E-01
   7.630537509837463E-01   7.677078229406437E-01   7.722539058686267E-01
   7.766887674498748E-01   7.810092027427074E-01   7.852120381769382E-01
   7.892941355822853E-01   7.932523962406492E-01   7.970837649529043E-01
   8.007852341107113E-01   8.043538477637516E-01   8.077867056727058E-01
   8.110809673382662E-01   8.142338559964469E-01   8.172426625704882E-01
   8.201047495696933E-01   8.228175549256246E-01   8.253785957561972E-01
   8.277854720483564E-01   8.300358702501990E-01   8.321275667636134E-01
   8.340584313287471E-01   8.358264302918837E-01   8.374296297486123E-01
   8.388661985545000E-01   8.401344111958389E-01   8.412326505134220E-01
   8.421594102727172E-01   8.429132975742447E-01   8.434930350984203E-01
   8.438974631796163E-01   8.441255417046873E-01   8.441763518317302E-01
   8.440490975253867E-01   8.437431069055417E-01   8.432578334068355E-01
   8.425928567469757E-01   8.417478837024123E-01   8.407227486905183E-01
   8.395174141580004E-01   8.381319707758440E-01   8.365666374416715E-01
   8.348217610909631E-01   8.328978163191459E-01   8.307954048171086E-01
   8.285152546232233E-01   8.260582191954824E-01   8.234252763078416E-01
   8.206175267753417E-01   8.176361930130285E-01   8.144826174341109E-01
   8.111582606931946E-01   8.076646997807930E-01   8.040036259756486E-01
   8.001768426616988E-01   7.961862630167895E-01   7.920339075804665E-01
   7.877219017083705E-01   7.832524729211418E-01   7.786279481540878E-01
   7.738507487133799E-01   7.689233810117865E-01   7.638484378651805E-01
   7.586286066631440E-01   7.532666557205648E-01   7.477654353355473E-01
   7.421278736227567E-01   7.363569734275115E-01   7.304558090780342E-01
   7.244275231272497E-01   7.182753230832605E-01   7.120024781347420E-01
   7.056123158775931E-01   6.991082190487962E-01   6.924936222731185E-01
   6.857720088279081E-01   6.789469074308792E-01   6.720218890553847E-01
   6.650005637772824E-01   6.578865776570948E-01   6.506836096626509E-01
   6.433953686257764E-01   6.360255902537906E-01   6.285780341799643E-01
   6.210564810633523E-01   6.134647297375592E-01   6.058065944093252E-01
   5.980859019074468E-01   5.903064889821696E-01   5.824721996548697E-01
   5.745868826175138E-01   5.666543886810811E-01   5.586785682718430E-01
   5.506632689741429E-01   5.426123331180791E-01   5.345295954102876E-01
   5.264188806058351E-01   5.182840012190787E-01   5.101287552712191E-01
   5.019569240721746E-01   4.937722700343314E-01   4.855785345156863E-01
   4.773794356898778E-01   4.691786664406245E-01   4.609798922781264E-01
   4.527867492750574E-01   4.446028420198759E-01   4.364317415853024E-01
   4.282769835099617E-01   4.201420657913595E-01   4.120304468885574E-01
   4.039455437331286E-01   3.958907297472065E-01   3.878693328676979E-01
   3.798846335759949E-01   3.719398629328099E-01   3.640382006180450E-01
   3.561827729759220E-01   3.483766510659051E-01   3.406228487202718E-01
   3.329243206095113E-01   3.252839603170531E-01   3.177045984251538E-01
   3.101890006140915E-01   3.027398657771357E-01   2.953598241540658E-01
   2.880514354863182E-01   2.808171871971238E-01   2.736594926002771E-01
   2.665806891414388E-01   2.595830366761138E-01   2.526687157886695E-01
   2.458398261569660E-01   2.390983849673455E-01   2.324463253848851E-01
   2.258854950839506E-01   2.194176548441890E-01   2.130444772171763E-01
   2.067675452689831E-01   2.005883514039398E-01   1.945082962748686E-01
   1.885286877850088E-01   1.826507401867870E-01   1.768755732824754E-01
   1.712042117316495E-01   1.656375844701836E-01   1.601765242453264E-01
   1.548217672711693E-01   1.495739530085587E-01   1.444336240732201E-01
   1.394012262755407E-01   1.344771087951193E-01   1.296615244928226E-01
   1.249546303626944E-01   1.203564881256528E-01   1.158670649664747E-01
   1.114862344151144E-01   1.072137773729354E-01   1.030493832839489E-01
   9.899265145066079E-02   9.504309249362111E-02   9.120012995326177E-02
   8.746310203208964E-02   8.383126347478750E-02   8.030378758325678E-02
   7.687976836312491E-02   7.355822279773341E-02   7.033809324512631E-02
   6.721824995307368E-02   6.419749368669558E-02   6.127455846279895E-02
   5.844811438460812E-02   5.571677057015965E-02   5.307907816724820E-02
   5.053353344745234E-02   4.807858097144286E-02   4.571261681747900E-02
   4.343399186473677E-02   4.124101512288617E-02   3.913195709914339E-02
   3.710505319387231E-02   3.515850711569597E-02   3.329049430700547E-02
   3.149916537072081E-02   2.978264948916646E-02   2.813905782597324E-02
   2.656648690200811E-02   2.506302193646364E-02   2.362674014440930E-02
   2.225571398231548E-02   2.094801433330789E-02   1.970171362419328E-02
   1.851488886661503E-02   1.738562461504797E-02   1.631201583472354E-02
   1.529217067298631E-02   1.432421312801955E-02   1.340628560933770E-02
   1.253655138492428E-02   1.171319691039347E-02   1.093443403606750E-02
   1.019850208838879E-02   9.503669822621692E-03   8.848237244340059E-03
   8.230537297742181E-03   7.648937419379036E-03   7.101840956423533E-03
   6.587688449144002E-03   6.104958777771627E-03   5.652170174466411E-03
   5.227881101586517E-03   4.830690997949238E-03   4.459240895235846E-03
   4.112213907135026E-03   3.788335594238519E-03   3.486374208096050E-03
   3.205140818203061E-03   2.943489326032837E-03   2.700316370532923E-03
   2.474561129783559E-03   2.265205023762212E-03   2.071271323372831E-03
   1.891824671080710E-03   1.725970518643828E-03   1.572854487549309E-03
   1.431661657849504E-03   1.301615791146644E-03   1.181978493498718E-03
   1.072048324013466E-03   9.711598548589916E-04   8.786826883725256E-04
   7.940204368100483E-04   7.166096702541150E-04   6.459188379875489E-04
   5.814471684489077E-04   5.227235528291786E-04   4.693054170575831E-04
   4.207775867367994E-04   3.767511493627861E-04   3.368623176412444E-04
   3.007713114545539E-04   2.681610923293258E-04   2.387372188838807E-04
   2.122232138331219E-04   1.883673373506742E-04   1.669367028702475E-04
   1.477125945561503E-04   1.304919659919107E-04   1.150874807099915E-04
   1.013265314815819E-04   8.905029136868730E-05   7.811279649937081E-05
   6.838006025220559E-05   5.972921816269434E-05   5.204770247967430E-05
   4.523244485072842E-05   3.918910511305028E-05   3.383132370223760E-05
   2.907999416467021E-05   2.486254817419288E-05   2.111231017885757E-05
   1.776746792437884E-05   1.478208117954720E-05   1.204822233392283E-05
   0.000000000000000E+00   0.000000000000000E+00   0.000000000000000E+00
   0.000000000000000E+00   0.000000000000000E+00   0.000000000000000E+00
   0.000000000000000E+00   0.000000000000000E+00   0.000000000000000E+00
   0.000000000000000E+00   0.000000000000000E+00   0.000000000000000E+00
   0.000000000000000E+00   0.000000000000000E+00   0.000000000000000E+00
   0.000000000000000E+00   0.000000000000000E+00   0.000000000000000E+00
   0.000000000000000E+00   0.000000000000000E+00   0.000000000000000E+00
   0.000000000000000E+00   0.000000000000000E+00   0.000000000000000E+00
   0.000000000000000E+00   0.000000000000000E+00   0.000000000000000E+00
   0.000000000000000E+00   0.000000000000000E+00   0.000000000000000E+00
   0.000000000000000E+00   0.000000000000000E+00   0.000000000000000E+00
   0.000000000000000E+00   0.000000000000000E+00   0.000000000000000E+00
   0.000000000000000E+00   0.000000000000000E+00   0.000000000000000E+00
   0.000000000000000E+00   0.000000000000000E+00   0.000000000000000E+00
   0.000000000000000E+00   0.000000000000000E+00   0.000000000000000E+00
   0.000000000000000E+00   0.000000000000000E+00   0.000000000000000E+00
   0.000000000000000E+00   0.000000000000000E+00   0.000000000000000E+00
   0.000000000000000E+00   0.000000000000000E+00   0.000000000000000E+00
   0.000000000000000E+00   0.000000000000000E+00   0.000000000000000E+00
   0.000000000000000E+00   0.000000000000000E+00   0.000000000000000E+00
   0.000000000000000E+00   0.000000000000000E+00   0.000000000000000E+00
   0.000000000000000E+00   0.000000000000000E+00   0.000000000000000E+00
   0.000000000000000E+00   0.000000000000000E+00   0.000000000000000E+00
   0.000000000000000E+00   0.000000000000000E+00   0.000000000000000E+00
   0.000000000000000E+00   0.000000000000000E+00   0.000000000000000E+00
   0.000000000000000E+00   0.000000000000000E+00   0.000000000000000E+00
   0.000000000000000E+00   0.000000000000000E+00   0.000000000000000E+00
   0.000000000000000E+00   0.000000000000000E+00   0.000000000000000E+00
   0.000000000000000E+00   0.000000000000000E+00   0.000000000000000E+00
   0.000000000000000E+00   0.000000000000000E+00   0.000000000000000E+00
   0.000000000000000E+00   0.000000000000000E+00   0.000000000000000E+00
   0.000000000000000E+00   0.000000000000000E+00   0.000000000000000E+00
   0.000000000000000E+00   0.000000000000000E+00   0.000000000000000E+00
   0.000000000000000E+00   0.000000000000000E+00   0.000000000000000E+00
   0.000000000000000E+00   0.000000000000000E+00   0.000000000000000E+00
   0.000000000000000E+00   0.000000000000000E+00   0.000000000000000E+00
   0.000000000000000E+00   0.000000000000000E+00   0.000000000000000E+00
   0.000000000000000E+00   0.000000000000000E+00   0.000000000000000E+00
   0.000000000000000E+00   0.000000000000000E+00   0.000000000000000E+00
   0.000000000000000E+00   0.000000000000000E+00   0.000000000000000E+00
   0.000000000000000E+00   0.000000000000000E+00   0.000000000000000E+00
   0.000000000000000E+00   0.000000000000000E+00   0.000000000000000E+00
   0.000000000000000E+00   0.000000000000000E+00   0.000000000000000E+00
   0.000000000000000E+00   0.000000000000000E+00   0.000000000000000E+00
   0.000000000000000E+00   0.000000000000000E+00   0.000000000000000E+00
   0.000000000000000E+00   0.000000000000000E+00   0.000000000000000E+00
   0.000000000000000E+00   0.000000000000000E+00   0.000000000000000E+00
   0.000000000000000E+00   0.000000000000000E+00   0.000000000000000E+00
   0.000000000000000E+00   0.000000000000000E+00   0.000000000000000E+00
   0.000000000000000E+00   0.000000000000000E+00   0.000000000000000E+00
   0.000000000000000E+00   0.000000000000000E+00   0.000000000000000E+00
    </PP_AEWFC.3>
    <PP_AEWFC.4 index="4" label="2P" l="1">
   2.152863623551496E-07   2.198154180320192E-07   2.244397530619319E-07
   2.291613718704816E-07   2.339885636989138E-07   2.389367898878943E-07
   2.440053186911322E-07   2.491975328335901E-07   2.545162145945473E-07
   2.599642147882910E-07   2.655444554217784E-07   2.712599313386782E-07
   2.771137119383346E-07   2.831089429525383E-07   2.892488482660926E-07
   2.955367317839621E-07   3.019759793460192E-07   3.085700606905680E-07
   3.153225314678473E-07   3.222370353047467E-07   3.293173059219990E-07
   3.365671693051460E-07   3.439905459306082E-07   3.515914530482205E-07
   3.593740070216333E-07   3.673424257280121E-07   3.755010310185063E-07
   3.838542512409950E-07   3.924066238266549E-07   4.011627979419362E-07
   4.101275372075711E-07   4.193057224862828E-07   4.287023547409011E-07
   4.383225579646393E-07   4.481715821853278E-07   4.582548065454451E-07
   4.685777424598354E-07   4.791460368530501E-07   4.899654754782946E-07
   5.010419863200204E-07   5.123816430822441E-07   5.239906687647358E-07
   5.358754393292684E-07   5.480424874581769E-07   5.604985064075317E-07
   5.732503539572911E-07   5.863050564608527E-07   5.996698129964900E-07
   6.133519996232203E-07   6.273591737437111E-07   6.416990785769051E-07
   6.563796477431060E-07   6.714090099643340E-07   6.867954938828400E-07
   7.025476330007283E-07   7.186741707437217E-07   7.351840656521730E-07
   7.520864967025064E-07   7.693908687623553E-07   7.871068181827387E-07
   8.052442185307091E-07   8.238131864659869E-07   8.428240877651846E-07
   8.622875434973170E-07   8.822144363543831E-07   9.026159171409038E-07
   9.235034114263933E-07   9.448886263648447E-07   9.667835576854110E-07
   9.892004968585679E-07   1.012152038442155E-06   1.035651087611791E-06
   1.059710867880295E-06   1.084344929010825E-06   1.109567155128610E-06
   1.135391773036222E-06   1.161833360737505E-06   1.188906856175377E-06
   1.216627566188861E-06   1.245011175694828E-06   1.274073757100095E-06
   1.303831779949627E-06   1.334302120816764E-06   1.365502073441534E-06
   1.397449359123259E-06   1.430162137373810E-06   1.463659016838066E-06
   1.497959066488225E-06   1.533081827098862E-06   1.569047323009722E-06
   1.605876074183491E-06   1.643589108565888E-06   1.682207974755671E-06
   1.721754754992301E-06   1.762252078469214E-06   1.803723134980852E-06
   1.846191688911797E-06   1.889682093576570E-06   1.934219305918872E-06
   1.979828901579250E-06   2.026537090340407E-06   2.074370731959602E-06
   2.123357352397821E-06   2.173525160455636E-06   2.224903064825929E-06
   2.277520691573895E-06   2.331408402055011E-06   2.386597311281925E-06
   2.443119306751461E-06   2.501007067743286E-06   2.560294085101973E-06
   2.621014681514575E-06   2.683204032296084E-06   2.746898186695453E-06
   2.812134089735191E-06   2.878949604597871E-06   2.947383535573179E-06
   3.017475651579542E-06   3.089266710274648E-06   3.162798482769575E-06
   3.238113778961604E-06   3.315256473501142E-06   3.394271532408597E-06
   3.475205040357411E-06   3.558104228639879E-06   3.643017503832793E-06
   3.729994477180358E-06   3.819085994712269E-06   3.910344168115295E-06
   4.003822406377151E-06   4.099575448221898E-06   4.197659395356632E-06
   4.298131746549654E-06   4.401051432560854E-06   4.506478851945540E-06
   4.614475907753475E-06   4.725106045145423E-06   4.838434289950027E-06
   4.954527288184479E-06   5.073453346562943E-06   5.195282474017322E-06
   5.320086424255574E-06   5.447938739383396E-06   5.578914794615717E-06
   5.713091844105119E-06   5.850549067914965E-06   5.991367620165698E-06
   6.135630678383467E-06   6.283423494080975E-06   6.434833444601173E-06
   6.589950086255167E-06   6.748865208786500E-06   6.911672891194747E-06
   7.078469558952157E-06   7.249354042647981E-06   7.424427638095847E-06
   7.603794167940557E-06   7.787560044801462E-06   7.975834335990550E-06
   8.168728829844299E-06   8.366358103709295E-06   8.568839593622614E-06
   8.776293665728970E-06   8.988843689477669E-06   9.206616112643413E-06
   9.429740538216192E-06   9.658349803206454E-06   9.892580059413043E-06
   1.013257085620240E-05   1.037846522534885E-05   1.063040976798686E-05
   1.088855474372765E-05   1.115305416199341E-05   1.142406587562421E-05
   1.170175167681353E-05   1.198627739542998E-05   1.227781299978424E-05
   1.257653269990138E-05   1.288261505336059E-05   1.319624307376548E-05
   1.351760434190995E-05   1.384689111970599E-05   1.418430046694162E-05
   1.453003436093847E-05   1.488429981918070E-05   1.524730902498821E-05
   1.561927945630912E-05   1.600043401770837E-05   1.639100117563093E-05
   1.679121509702019E-05   1.720131579137405E-05   1.762154925632308E-05
   1.805216762681735E-05   1.849342932801050E-05   1.894559923193177E-05
   1.940894881803899E-05   1.988375633774768E-05   2.037030698303373E-05
   2.086889305920946E-05   2.137981416197543E-05   2.190337735885253E-05
   2.243989737510166E-05   2.298969678424079E-05   2.355310620327180E-05
   2.413046449273231E-05   2.472211896169025E-05   2.532842557780211E-05
   2.594974918255826E-05   2.658646371184214E-05   2.723895242193269E-05
   2.790760812108299E-05   2.859283340681076E-05   2.929504090904000E-05
   3.001465353923611E-05   3.075210474568039E-05   3.150783877503322E-05
   3.228231094033876E-05   3.307598789562770E-05   3.388934791727826E-05
   3.472288119229946E-05   3.557709011370464E-05   3.645248958314692E-05
   3.734960732099288E-05   3.826898418401434E-05   3.921117449088259E-05
   4.017674635565405E-05   4.116628202944037E-05   4.218037825046060E-05
   4.321964660267817E-05   4.428471388322949E-05   4.537622247885632E-05
   4.649483075155900E-05   4.764121343369243E-05   4.881606203273233E-05
   5.002008524594408E-05   5.125400938519251E-05   5.251857881213596E-05
   5.381455638405401E-05   5.514272391056408E-05   5.650388262148762E-05
   5.789885364613325E-05   5.932847850427002E-05   6.079361960907040E-05
   6.229516078230907E-05   6.383400778211032E-05   6.541108884354340E-05
   6.702735523237231E-05   6.868378181227325E-05   7.038136762584073E-05
   7.212113648970994E-05   7.390413760413111E-05   7.573144617733929E-05
   7.760416406506990E-05   7.952342042558014E-05   8.149037239054259E-05
   8.350620575218728E-05   8.557213566707599E-05   8.768940737690199E-05
   8.985929694671679E-05   9.208311202099489E-05   9.436219259795667E-05
   9.669791182257919E-05   9.909167679873403E-05   1.015449294209015E-04
   1.040591472259205E-04   1.066358442652435E-04   1.092765719981767E-04
   1.119829202065967E-04   1.147565179316441E-04   1.175990344329084E-04
   1.205121801706275E-04   1.234977078114374E-04   1.265574132582215E-04
   1.296931367046171E-04   1.329067637147518E-04   1.362002263287961E-04
   1.395755041949274E-04   1.430346257283172E-04   1.465796692977650E-04
   1.502127644406164E-04   1.539360931066168E-04   1.577518909313661E-04
   1.616624485400533E-04   1.656701128821669E-04   1.697772885978894E-04
   1.739864394169008E-04   1.783000895903310E-04   1.827208253566174E-04
   1.872512964420388E-04   1.918942175967153E-04   1.966523701668770E-04
   2.015286037042268E-04   2.065258376132328E-04   2.116470628372099E-04
   2.168953435840650E-04   2.222738190925970E-04   2.277857054402662E-04
   2.334342973933609E-04   2.392229703005124E-04   2.451551820305269E-04
   2.512344749555243E-04   2.574644779803920E-04   2.638489086195850E-04
   2.703915751223210E-04   2.770963786472450E-04   2.839673154876550E-04
   2.910084793484054E-04   2.982240636756248E-04   3.056183640404101E-04
   3.131957805776789E-04   3.209608204813873E-04   3.289181005573441E-04
   3.370723498348753E-04   3.454284122386172E-04   3.539912493217432E-04
   3.627659430619518E-04   3.717576987215703E-04   3.809718477731548E-04
   3.904138508919915E-04   4.000893010169338E-04   4.100039264810334E-04
   4.201635942134532E-04   4.305743130141760E-04   4.412422369030520E-04
   4.521736685447555E-04   4.633750627512507E-04   4.748530300633942E-04
   4.866143404133325E-04   4.986659268693819E-04   5.110148894651080E-04
   5.236684991143510E-04   5.366342016139781E-04   5.499196217361685E-04
   5.635325674120721E-04   5.774810340087164E-04   5.917732087010602E-04
   6.064174749411324E-04   6.214224170262236E-04   6.367968247681289E-04
   6.525496982654755E-04   6.686902527812011E-04   6.852279237272812E-04
   7.021723717588378E-04   7.195334879797953E-04   7.373213992622816E-04
   7.555464736820094E-04   7.742193260719026E-04   7.933508236962698E-04
   8.129520920478588E-04   8.330345207701622E-04   8.536097697073756E-04
   8.746897750844480E-04   8.962867558196913E-04   9.184132199724592E-04
   9.410819713284304E-04   9.643061161250718E-04   9.880990699198855E-04
   1.012474564604082E-03   1.037446655564353E-03   1.063029728995445E-03
   1.089238509366278E-03   1.116088067042379E-03   1.143593826067432E-03
   1.171771572106775E-03   1.200637460555717E-03   1.230208024815567E-03
   1.260500184740297E-03   1.291531255256794E-03   1.323318955161696E-03
   1.355881416097797E-03   1.389237191713086E-03   1.423405267005468E-03
   1.458405067856251E-03   1.494256470755526E-03   1.530979812722559E-03
   1.568595901424365E-03   1.607126025495624E-03   1.646591965063154E-03
   1.687016002478135E-03   1.728420933259326E-03   1.770830077250510E-03
   1.814267289995425E-03   1.858756974333447E-03   1.904324092219304E-03
   1.950994176770087E-03   1.998793344542867E-03   2.047748308046186E-03
   2.097886388488721E-03   2.149235528768394E-03   2.201824306705236E-03
   2.255681948521232E-03   2.310838342570450E-03   2.367324053322674E-03
   2.425170335603780E-03   2.484409149096057E-03   2.545073173101663E-03
   2.607195821572367E-03   2.670811258408697E-03   2.735954413031587E-03
   2.802660996229570E-03   2.870967516284507E-03   2.940911295378827E-03
   3.012530486287144E-03   3.085864089355126E-03   3.160951969768366E-03
   3.237834875113960E-03   3.316554453237438E-03   3.397153270397579E-03
   3.479674829721576E-03   3.564163589962914E-03   3.650664984564236E-03
   3.739225441027333E-03   3.829892400592328E-03   3.922714338227951E-03
   4.017740782934704E-03   4.115022338362583E-03   4.214610703744835E-03
   4.316558695149121E-03   4.420920267047284E-03   4.527750534204697E-03
   4.637105793890081E-03   4.749043548406379E-03   4.863622527943167E-03
   4.980902713750807E-03   5.100945361636345E-03   5.223813025780932E-03
   5.349569582878283E-03   5.478280256593437E-03   5.610011642340812E-03
   5.744831732380263E-03   5.882809941229556E-03   6.024017131391364E-03
   6.168525639392550E-03   6.316409302133205E-03   6.467743483542494E-03
   6.622605101538052E-03   6.781072655285270E-03   6.943226252752372E-03
   7.109147638556857E-03   7.278920222098341E-03   7.452629105972459E-03
   7.630361114659999E-03   7.812204823484933E-03   7.998250587834531E-03
   8.188590572634201E-03   8.383318782069162E-03   8.582531089544494E-03
   8.786325267874527E-03   8.994801019691891E-03   9.208060008065965E-03
   9.426205887319817E-03   9.649344334033966E-03   9.877583078224743E-03
   1.011103193468417E-02   1.034980283446760E-02   1.059400985651464E-02
   1.084376925938796E-02   1.109919951311380E-02   1.136042133110738E-02
   1.162755770216507E-02   1.190073392250475E-02   1.218007762783462E-02
   1.246571882542973E-02   1.275778992619469E-02   1.305642577668989E-02
   1.336176369109751E-02   1.367394348310251E-02   1.399310749766290E-02
   1.431940064264209E-02   1.465297042027528E-02   1.499396695844050E-02
   1.534254304170370E-02   1.569885414210604E-02   1.606305844966022E-02
   1.643531690252148E-02   1.681579321679728E-02   1.720465391595863E-02
   1.760206835981420E-02   1.800820877300741E-02   1.842325027299459E-02
   1.884737089746133E-02   1.928075163113215E-02   1.972357643192744E-02
   2.017603225641947E-02   2.063830908453820E-02   2.111059994347535E-02
   2.159310093073398E-02   2.208601123626860E-02   2.258953316365940E-02
   2.310387215026206E-02   2.362923678627304E-02   2.416583883264804E-02
   2.471389323780962E-02   2.527361815307790E-02   2.584523494675626E-02
   2.642896821680203E-02   2.702504580200999E-02   2.763369879163449E-02
   2.825516153337381E-02   2.888967163963845E-02   2.953746999202253E-02
   3.019880074389561E-02   3.087391132102991E-02   3.156305242017557E-02
   3.226647800549458E-02   3.298444530276141E-02   3.371721479123650E-02
   3.446505019311589E-02   3.522821846045873E-02   3.600698975949120E-02
   3.680163745218371E-02   3.761243807499563E-02   3.843967131467951E-02
   3.928361998103418E-02   4.014456997649431E-02   4.102281026244101E-02
   4.191863282211623E-02   4.283233262002114E-02   4.376420755767643E-02
   4.471455842562022E-02   4.568368885151708E-02   4.667190524424907E-02
   4.767951673385815E-02   4.870683510720651E-02   4.975417473921979E-02
   5.082185251957560E-02   5.191018777469827E-02   5.301950218491848E-02
   5.415011969665451E-02   5.530236642947050E-02   5.647657057786472E-02
   5.767306230763995E-02   5.889217364670599E-02   6.013423837016337E-02
   6.139959187951546E-02   6.268857107585578E-02   6.400151422687564E-02
   6.533876082753666E-02   6.670065145425193E-02   6.808752761241904E-02
   6.949973157714796E-02   7.093760622702615E-02   7.240149487076389E-02
   7.389174106656270E-02   7.540868843405012E-02   7.695268045862534E-02
   7.852406028806043E-02   8.012317052120385E-02   8.175035298863419E-02
   8.340594852511370E-02   8.509029673369414E-02   8.680373574132885E-02
   8.854660194584908E-02   9.031922975416495E-02   9.212195131155551E-02
   9.395509622191650E-02   9.581899125883871E-02   9.771396006739481E-02
   9.964032285651846E-02   1.015983960818647E-01   1.035884921190476E-01
   1.056109189271587E-01   1.076659797024751E-01   1.097539725222776E-01
   1.118751899787055E-01   1.140299188025839E-01   1.162184394771719E-01
   1.184410258417876E-01   1.206979446852793E-01   1.229894553293237E-01
   1.253158092015438E-01   1.276772493984544E-01   1.300740102382556E-01
   1.325063168035103E-01   1.349743844737580E-01   1.374784184481326E-01
   1.400186132580691E-01   1.425951522702038E-01   1.452082071795893E-01
   1.478579374933654E-01   1.505444900050494E-01   1.532679982596263E-01
   1.560285820096468E-01   1.588263466625556E-01   1.616613827195051E-01
   1.645337652059233E-01   1.674435530941382E-01   1.703907887183781E-01
   1.733754971824978E-01   1.763976857608039E-01   1.794573432923786E-01
   1.825544395693280E-01   1.856889247194082E-01   1.888607285835068E-01
   1.920697600884853E-01   1.953159066159144E-01   1.985990333672591E-01
   2.019189827260965E-01   2.052755736179735E-01   2.086686008685360E-01
   2.120978345605851E-01   2.155630193907353E-01   2.190638740263733E-01
   2.226000904636319E-01   2.261713333871142E-01   2.297772395321150E-01
   2.334174170501020E-01   2.370914448782299E-01   2.407988721136667E-01
   2.445392173935196E-01   2.483119682811474E-01   2.521165806596494E-01
   2.559524781333108E-01   2.598190514377851E-01   2.637156578597746E-01
   2.676416206669623E-01   2.715962285489276E-01   2.755787350697569E-01
   2.795883581330366E-01   2.836242794598894E-01   2.876856440806826E-01
   2.917715598410077E-01   2.958810969224960E-01   3.000132873790021E-01
   3.041671246886508E-01   3.083415633222147E-01   3.125355183282552E-01
   3.167478649354379E-01   3.209774381724075E-01   3.252230325055979E-01
   3.294834014953453E-01   3.337572574706777E-01   3.380432712231704E-01
   3.423400717202912E-01   3.466462458387046E-01   3.509603381180679E-01
   3.552808505359391E-01   3.596062423045181E-01   3.639349296900677E-01
   3.682652858560064E-01   3.725956407308311E-01   3.769242809022137E-01
   3.812494495388171E-01   3.855693463415938E-01   3.898821275265622E-01
   3.941859058412864E-01   3.984787506175295E-01   4.027586878627791E-01
   4.070237003935707E-01   4.112717280137421E-01   4.155006677409327E-01
   4.197083740847975E-01   4.238926593805208E-01   4.280512941812873E-01
   4.321820077133965E-01   4.362824883976781E-01   4.403503844407914E-01
   4.443833044998493E-01   4.483788184236283E-01   4.523344580733720E-01
   4.562477182259098E-01   4.601160575614672E-01   4.639368997381652E-01
   4.677076345547891E-01   4.714256192029597E-01   4.750881796093752E-01
   4.786926118683071E-01   4.822361837640426E-01   4.857161363824747E-01
   4.891296858105497E-01   4.924740249218011E-01   4.957463252457331E-01
   4.989437389183640E-01   5.020634007108117E-01   5.051024301323922E-01
   5.080579336043185E-01   5.109270066997285E-01   5.137067364454336E-01
   5.163942036804734E-01   5.189864854662777E-01   5.214806575429807E-01
   5.238737968261998E-01   5.261629839383849E-01   5.283453057686608E-01
   5.304178580549279E-01   5.323777479818506E-01   5.342220967882505E-01
   5.359480423773381E-01   5.375527419231445E-01   5.390333744664795E-01
   5.403871434937204E-01   5.416112794917405E-01   5.427030424723144E-01
   5.436597244593911E-01   5.444786519326950E-01   5.451571882212177E-01
   5.456927358402854E-01   5.460827387660284E-01   5.463246846412527E-01
   5.464161069069047E-01   5.463545868535323E-01   5.461377555873899E-01
   5.457632959060916E-01   5.452289440789986E-01   5.445324915278322E-01
   5.436717864033285E-01   5.426447350540864E-01   5.414493033841321E-01
   5.400835180960903E-01   5.385454678172521E-01   5.368333041062363E-01
   5.349452423383544E-01   5.328795624682311E-01   5.306346096686618E-01
   5.282087948451430E-01   5.256005950259593E-01   5.228085536281720E-01
   5.198312806003093E-01   5.166674524430143E-01   5.133158121093682E-01
   5.097751687870481E-01   5.060443975649296E-01   5.021224389871766E-01
   4.980082984982836E-01   4.937010457829520E-01   4.891998140050733E-01
   4.845037989504771E-01   4.796122580784608E-01   4.745245094874624E-01
   4.692399308005560E-01   4.637579579767485E-01   4.580780840543275E-01
   4.521998578327579E-01   4.461228824998441E-01   4.398468142110665E-01
   4.333713606281652E-01   4.266962794243579E-01   4.198213767621877E-01
   4.127465045759087E-01   4.054715556602430E-01   3.979964644992122E-01
   3.903212117648660E-01   3.824458171115905E-01   3.743703399487023E-01
   3.660948774389943E-01   3.576195631329920E-01   3.489445655694430E-01
   3.400700869268110E-01   3.309963617278445E-01   3.217236556030458E-01
   3.122522641187849E-01   3.025825116754550E-01   2.927147504807230E-01
   2.826493596025666E-01   2.723867441063990E-01   2.619273342801880E-01
   2.512715849510485E-01   2.404199748963598E-01   2.293730063520105E-01
   2.181312046199158E-01   2.066951177764900E-01   1.950653164832805E-01
   1.832423939004939E-01   1.712269657036674E-01   1.590196702032525E-01
   1.466211685664057E-01   1.340321451397967E-01   1.212533078717781E-01
   1.082853888317987E-01   9.512914482448466E-02   8.178535809537082E-02
   6.825483712483055E-02   5.453841750633946E-02   4.063696290480649E-02
   2.655136609032371E-02   1.228255004232389E-02  -2.168530881206797E-03
  -1.680088971513292E-02  -3.161350560515774E-02  -4.660532247863222E-02
  -6.177524767466556E-02  -7.712215054023430E-02  -9.264486099917424E-02
  -1.083421681010971E-01  -1.242128185574018E-01  -1.402555152716458E-01
  -1.564689158716071E-01  -1.728516312503964E-01  -1.894022241239826E-01
  -2.061192076124519E-01  -2.230010438522604E-01  -2.400461426466272E-01
  -2.572528601610851E-01  -2.746194976710278E-01  -2.921443003678864E-01
  -3.098254562303262E-01  -3.276610949665765E-01  -3.456492870336952E-01
  -3.637880427392223E-01  -3.820753114302987E-01  -4.005089807749075E-01
  -4.190868761394535E-01  -4.378067600664108E-01  -4.566663318552548E-01
  -4.756632272493548E-01  -4.947950182309181E-01  -5.140592129254751E-01
  -5.334532556167533E-01  -5.529745268721223E-01  -5.726203437780943E-01
  -5.923879602846382E-01  -6.122745676563207E-01  -6.322772950275026E-01
  -6.523932100580256E-01  -6.726193196849871E-01  -6.929525709653652E-01
  -7.133898520033761E-01  -7.339279929555592E-01  -7.545637671056793E-01
  -7.752938920006039E-01  -7.961150306373765E-01  -8.170237926907494E-01
  -8.380167357694728E-01  -8.590903666886578E-01  -8.802411427445507E-01
  -9.014654729770566E-01  -9.227597194043646E-01  -9.441201982130255E-01
  -9.655431808858418E-01  -9.870248952489395E-01  -1.008561526418414E+00
  -1.030149217625962E+00  -1.051784070901967E+00  -1.073462147593557E+00
  -1.095179468694234E+00  -1.116932014960796E+00  -1.138715726792380E+00
  -1.160526503845656E+00  -1.182360204359372E+00  -1.204212644160733E+00
  -1.226079595325353E+00  -1.247956784461899E+00  -1.269839890591916E+00
  -1.291724542594808E+00  -1.313606316187456E+00  -1.335480730407582E+00
  -1.357343243569608E+00  -1.379189248661565E+00  -1.401014068151421E+00
  -1.422812948171168E+00  -1.444581052047039E+00  -1.466313453144404E+00
  -1.488005126996157E+00  -1.509650942683786E+00  -1.531245653440881E+00
  -1.552783886449462E+00  -1.574260131800332E+00  -1.595668730589622E+00
  -1.617003862124798E+00  -1.638259530214709E+00  -1.659429548519708E+00
  -1.680507524939527E+00  -1.701486845018439E+00  -1.722360654349300E+00
  -1.743121839960303E+00  -1.763763010670803E+00  -1.784276476405261E+00
  -1.804654226457366E+00  -1.824887906699577E+00  -1.844968795736875E+00
  -1.864887780007255E+00  -1.884635327835589E+00  -1.904201462451846E+00
  -1.923575733989385E+00  -1.942747190484041E+00  -1.961704347900132E+00
  -1.980435159215238E+00  -1.998926982601744E+00  -2.017166548749651E+00
  -2.035139927382073E+00  -2.052832493022205E+00  -2.070228890078334E+00
  -2.087312997321719E+00  -2.104067891840892E+00  -2.120475812565148E+00
  -2.136518123459745E+00  -2.152175276505560E+00  -2.167426774586776E+00
  -2.182251134421530E+00  -2.196625849682370E+00  -2.210527354465945E+00
  -2.223930987284425E+00  -2.236810955764962E+00  -2.249140302257850E+00
  -2.260890870569079E+00  -2.272033274048664E+00  -2.282536865282435E+00
  -2.292369707651992E+00  -2.301498549045144E+00  -2.309888798017478E+00
  -2.317504502724606E+00  -2.324308332964248E+00  -2.330261565687465E+00
  -2.335324074359130E+00  -2.339454322569030E+00  -2.342609362316853E+00
  -2.344744837416543E+00  -2.345814992488240E+00  -2.345772688029014E+00
  -2.344569422070738E+00  -2.342155358961932E+00  -2.338479365881178E+00
  -2.333489057620675E+00  -2.327130850163910E+00  -2.319350023909867E+00
  -2.310090797036347E+00  -2.299296409598869E+00  -2.286909219270381E+00
  -2.272870809284868E+00  -2.257122109370243E+00  -2.239603530378586E+00
  -2.220255113468070E+00  -2.199027033421689E+00  -2.175902174099574E+00
  -2.150852067021542E+00  -2.123790105850668E+00  -2.094661589000959E+00
  -2.063403105357658E+00  -2.029953920648208E+00  -1.994254714112376E+00
  -1.956248004974475E+00  -1.915878486023848E+00  -1.873093374978114E+00
  -1.827842788853253E+00  -1.780080141113301E+00  -1.729762561931078E+00
  -1.676851342033687E+00  -1.621312400152083E+00  -1.563116774148755E+00
  -1.502241135685938E+00  -1.438668328137876E+00  -1.372387927257108E+00
  -1.303396823890221E+00  -1.231699827800146E+00  -1.157310291388410E+00
  -1.080250751820567E+00  -1.000553589739908E+00  -9.182617024073735E-01
  -8.334291887282065E-01  -7.461220432173606E-01  -6.564188555152721E-01
  -5.644115115927766E-01  -4.702058922784549E-01  -3.739225642036304E-01
  -2.756974576900698E-01  -1.756825255041288E-01  -7.404637577007520E-02
   2.902512832328647E-02   1.333283100720197E-01   2.386411708165699E-01
   3.447229409870974E-01   4.513137008434302E-01   5.581340818565220E-01
   6.648850604137566E-01   7.712478562542001E-01   8.768839487416742E-01
   9.814352247513396E-01   1.084524272565808E+00   1.185754836734333E+00
   1.284712449326236E+00   1.380965253388321E+00   1.474065034674561E+00
   1.563548477831670E+00   1.648938663171144E+00   1.729746819909632E+00
   1.805474351285951E+00   1.875615146233311E+00   1.939658191266552E+00
   1.997090494901854E+00   2.047400335224617E+00   2.090080839123456E+00
   2.124633899177341E+00   2.150574431182040E+00   2.167434971795003E+00
   2.174770611730597E+00   2.172164255318273E+00   2.159232192017363E+00
   2.135629959640997E+00   2.101058472562224E+00   2.055270381050256E+00
   1.998076620116388E+00   1.929353097852302E+00   1.849047464247548E+00
   1.757185891923890E+00   1.653879790187463E+00   1.539332363362670E+00
   1.413844913646614E+00   1.277822777849225E+00   1.131780776531913E+00
   9.763480434290512E-01   8.122720928696381E-01   6.404219734857468E-01
   4.617903481134558E-01   2.774943328137645E-01   8.877492275826207E-02
  -1.030051702316829E-01  -2.963654439648958E-01  -4.897134685185869E-01
  -6.813528511172813E-01  -8.694934582079974E-01  -1.052264033932178E+00
  -1.227727333056896E+00  -1.393897859369696E+00  -1.548762267062133E+00
  -1.690302442283578E+00  -1.816521234479179E+00  -1.925470752085717E+00
  -2.015283074541889E+00  -2.084203162449661E+00  -2.130623670392290E+00
  -2.153121282921079E+00  -2.150494104414871E+00  -2.121799539082386E+00
  -2.066391999888316E+00  -1.983959686629548E+00  -1.874559576209715E+00
  -1.738649675276937E+00  -1.577117500209781E+00  -1.391303675858741E+00
  -1.183019486844840E+00  -9.545571783839091E-01  -7.086917927085784E-01
  -4.486733476297672E-01  -1.782082211772435E-01   9.857129389259965E-02
   3.771501543652991E-01   6.526871382113701E-01   9.200852557372381E-01
   1.174076116712874E+00   1.409317993848800E+00   1.620506887204126E+00
   1.802499401768872E+00   1.950445707586473E+00   2.059930267673235E+00
   2.127117406658727E+00   2.148898169557412E+00   2.123034306697711E+00
   2.048294643245709E+00   1.924578579888566E+00   1.753021058927271E+00
   1.536073054405241E+00   1.277551545442160E+00   9.826530491296805E-01
   6.579251629165078E-01   3.111912331932672E-01  -4.857574189789488E-02
  -4.114325287419714E-01  -7.666992499363633E-01  -1.103245956775049E+00
  -1.409828606483613E+00  -1.675468202134681E+00  -1.889863974123021E+00
  -2.043828489576069E+00  -2.129729599036482E+00  -2.141921326279876E+00
  -2.077143362436441E+00  -1.934866947586210E+00  -1.717563835179232E+00
  -1.430874965878445E+00  -1.083656648646151E+00  -6.878846544745975E-01
  -2.584008244845262E-01   1.875073341826241E-01   6.306960463600140E-01
   1.050916538301828E+00   1.427710639523606E+00   1.741421845004476E+00
   1.974281271644369E+00   2.111516601766390E+00   2.142421977926265E+00
   2.061318873329637E+00   1.868333255841686E+00   1.569913938239862E+00
   1.179021826344104E+00   7.149306156070752E-01   2.025968169500893E-01
  -3.284191413895064E-01  -8.454690876066485E-01  -1.314724114887202E+00
  -1.703388156959199E+00  -1.982095583884232E+00  -2.127334796305048E+00
  -2.123710915600916E+00  -1.965842470587953E+00  -1.659683521106393E+00
    </PP_AEWFC.4>
    <PP_PSWFC.1 size="1095" index="1" label="2S" l="0">
  -2.421670633501625E-04  -2.452131499497298E-04  -2.482975515992455E-04
  -2.514207502426039E-04  -2.545832338858039E-04  -2.577854966731995E-04
  -2.610280389647116E-04  -2.643113674140095E-04  -2.676359950476760E-04
  -2.710024413453701E-04  -2.744112323209949E-04  -2.778629006048888E-04
  -2.813579855270494E-04  -2.848970332014053E-04  -2.884805966111472E-04
  -2.921092356951315E-04  -2.957835174353721E-04  -2.995040159456327E-04
  -3.032713125611315E-04  -3.070859959293778E-04  -3.109486621021469E-04
  -3.148599146286150E-04  -3.188203646496649E-04  -3.228306309933768E-04
  -3.268913402717220E-04  -3.310031269784710E-04  -3.351666335883344E-04
  -3.393825106573501E-04  -3.436514169245341E-04  -3.479740194148093E-04
  -3.523509935432279E-04  -3.567830232205073E-04  -3.612708009598910E-04
  -3.658150279853546E-04  -3.704164143411743E-04  -3.750756790028701E-04
  -3.797935499895475E-04  -3.845707644776517E-04  -3.894080689161513E-04
  -3.943062191431733E-04  -3.992659805041015E-04  -4.042881279711639E-04
  -4.093734462645224E-04  -4.145227299748861E-04  -4.197367836876677E-04
  -4.250164221086994E-04  -4.303624701915315E-04  -4.357757632663334E-04
  -4.412571471704129E-04  -4.468074783803810E-04  -4.524276241459749E-04
  -4.581184626255675E-04  -4.638808830233803E-04  -4.697157857284213E-04
  -4.756240824551734E-04  -4.816066963860477E-04  -4.876645623156327E-04
  -4.937986267967564E-04  -5.000098482883851E-04  -5.062991973053843E-04
  -5.126676565701602E-04  -5.191162211662115E-04  -5.256458986936114E-04
  -5.322577094264450E-04  -5.389526864722290E-04  -5.457318759333320E-04
  -5.525963370704307E-04  -5.595471424680182E-04  -5.665853782019952E-04
  -5.737121440093713E-04  -5.809285534600958E-04  -5.882357341310551E-04
  -5.956348277822558E-04  -6.031269905352233E-04  -6.107133930536488E-04
  -6.183952207263007E-04  -6.261736738522442E-04  -6.340499678283857E-04
  -6.420253333393791E-04  -6.501010165499199E-04  -6.582782792994557E-04
  -6.665583992993495E-04  -6.749426703325202E-04  -6.834324024555943E-04
  -6.920289222036043E-04  -7.007335727972540E-04  -7.095477143527982E-04
  -7.184727240945579E-04  -7.275099965701101E-04  -7.366609438681862E-04
  -7.459269958393051E-04  -7.553096003191871E-04  -7.648102233549759E-04
  -7.744303494343055E-04  -7.841714817172507E-04  -7.940351422711894E-04
  -8.040228723086257E-04  -8.141362324279994E-04  -8.243768028575262E-04
  -8.347461837021073E-04  -8.452459951933374E-04  -8.558778779426655E-04
  -8.666434931977340E-04  -8.775445231019447E-04  -8.885826709572913E-04
  -8.997596614904901E-04  -9.110772411224671E-04  -9.225371782412288E-04
  -9.341412634781675E-04  -9.458913099878431E-04  -9.577891537312774E-04
  -9.698366537628184E-04  -9.820356925206110E-04  -9.943881761207182E-04
  -1.006896034654947E-03  -1.019561222492412E-03  -1.032385718584900E-03
  -1.045371526776069E-03  -1.058520676114542E-03  -1.071835221170936E-03
  -1.085317242358871E-03  -1.098968846260033E-03  -1.112792165953306E-03
  -1.126789361348058E-03  -1.140962619521618E-03  -1.155314155060982E-03
  -1.169846210408837E-03  -1.184561056213926E-03  -1.199460991685814E-03
  -1.214548344954138E-03  -1.229825473432343E-03  -1.245294764186021E-03
  -1.260958634305868E-03  -1.276819531285334E-03  -1.292879933403025E-03
  -1.309142350109912E-03  -1.325609322421407E-03  -1.342283423314381E-03
  -1.359167258129158E-03  -1.376263464976583E-03  -1.393574715150193E-03
  -1.411103713543582E-03  -1.428853199073012E-03  -1.446825945105338E-03
  -1.465024759891317E-03  -1.483452487004359E-03  -1.502112005784806E-03
  -1.521006231789794E-03  -1.540138117248765E-03  -1.559510651524724E-03
  -1.579126861581279E-03  -1.598989812455564E-03  -1.619102607737107E-03
  -1.639468390052721E-03  -1.660090341557495E-03  -1.680971684431947E-03
  -1.702115681385450E-03  -1.723525636165965E-03  -1.745204894076203E-03
  -1.767156842496272E-03  -1.789384911412885E-03  -1.811892573955243E-03
  -1.834683346937638E-03  -1.857760791408889E-03  -1.881128513208690E-03
  -1.904790163530934E-03  -1.928749439494155E-03  -1.953010084719105E-03
  -1.977575889913618E-03  -2.002450693464827E-03  -2.027638382038804E-03
  -2.053142891187782E-03  -2.078968205964963E-03  -2.105118361547098E-03
  -2.131597443864873E-03  -2.158409590241209E-03  -2.185558990037636E-03
  -2.213049885308735E-03  -2.240886571464840E-03  -2.269073397943082E-03
  -2.297614768886827E-03  -2.326515143833716E-03  -2.355779038412293E-03
  -2.385411025047438E-03  -2.415415733674657E-03  -2.445797852463319E-03
  -2.476562128549046E-03  -2.507713368775257E-03  -2.539256440444053E-03
  -2.571196272076559E-03  -2.603537854182780E-03  -2.636286240041196E-03
  -2.669446546488092E-03  -2.703023954716856E-03  -2.737023711087317E-03
  -2.771451127945222E-03  -2.806311584452072E-03  -2.841610527425333E-03
  -2.877353472189238E-03  -2.913546003436288E-03  -2.950193776099538E-03
  -2.987302516235921E-03  -3.024878021920588E-03  -3.062926164152553E-03
  -3.101452887771701E-03  -3.140464212387287E-03  -3.179966233318172E-03
  -3.219965122544807E-03  -3.260467129673213E-03  -3.301478582911090E-03
  -3.343005890056134E-03  -3.385055539496854E-03  -3.427634101225891E-03
  -3.470748227866102E-03  -3.514404655709562E-03  -3.558610205769541E-03
  -3.603371784845805E-03  -3.648696386603203E-03  -3.694591092663865E-03
  -3.741063073713110E-03  -3.788119590619205E-03  -3.835767995567274E-03
  -3.884015733207358E-03  -3.932870341816957E-03  -3.982339454478171E-03
  -4.032430800269569E-03  -4.083152205473122E-03  -4.134511594796201E-03
  -4.186516992608985E-03  -4.239176524197386E-03  -4.292498417031684E-03
  -4.346491002051161E-03  -4.401162714964782E-03  -4.456522097568262E-03
  -4.512577799077671E-03  -4.569338577479728E-03  -4.626813300899134E-03
  -4.685010948982981E-03  -4.743940614302600E-03  -4.803611503772994E-03
  -4.864032940090047E-03  -4.925214363185852E-03  -4.987165331702217E-03
  -5.049895524482719E-03  -5.113414742083473E-03  -5.177732908302833E-03
  -5.242860071730331E-03  -5.308806407315000E-03  -5.375582217953406E-03
  -5.443197936097609E-03  -5.511664125383257E-03  -5.580991482278147E-03
  -5.651190837751422E-03  -5.722273158963732E-03  -5.794249550978587E-03
  -5.867131258495147E-03  -5.940929667602771E-03  -6.015656307557540E-03
  -6.091322852581061E-03  -6.167941123681834E-03  -6.245523090499413E-03
  -6.324080873171723E-03  -6.403626744225747E-03  -6.484173130491920E-03
  -6.565732615042517E-03  -6.648317939154304E-03  -6.731942004295803E-03
  -6.816617874139422E-03  -6.902358776598820E-03  -6.989178105891757E-03
  -7.077089424628780E-03  -7.166106465928093E-03  -7.256243135556855E-03
  -7.347513514099306E-03  -7.439931859152054E-03  -7.533512607546779E-03
  -7.628270377600812E-03  -7.724219971395815E-03  -7.821376377085004E-03
  -7.919754771229233E-03  -8.019370521162250E-03  -8.120239187385594E-03
  -8.222376525993370E-03  -8.325798491127372E-03  -8.430521237462900E-03
  -8.536561122725592E-03  -8.643934710239767E-03  -8.752658771508550E-03
  -8.862750288826240E-03  -8.974226457923328E-03  -9.087104690644481E-03
  -9.201402617660026E-03  -9.317138091211206E-03  -9.434329187889737E-03
  -9.552994211452056E-03  -9.673151695668592E-03  -9.794820407208677E-03
  -9.918019348561333E-03  -1.004276776099251E-02  -1.016908512753921E-02
  -1.029699117604079E-02  -1.042650588220821E-02  -1.055764947273132E-02
  -1.069044242842495E-02  -1.082490548741411E-02  -1.096105964835884E-02
  -1.109892617371917E-02  -1.123852659306065E-02  -1.137988270640105E-02
  -1.152301658759860E-02  -1.166795058778232E-02  -1.181470733882502E-02
  -1.196330975685932E-02  -1.211378104583746E-02  -1.226614470113514E-02
  -1.242042451320012E-02  -1.257664457124613E-02  -1.273482926699242E-02
  -1.289500329844977E-02  -1.305719167375338E-02  -1.322141971504311E-02
  -1.338771306239189E-02  -1.355609767778263E-02  -1.372659984913430E-02
  -1.389924619437785E-02  -1.407406366558244E-02  -1.425107955313259E-02
  -1.443032148995692E-02  -1.461181745580911E-02  -1.479559578160153E-02
  -1.498168515379244E-02  -1.517011461882704E-02  -1.536091358763334E-02
  -1.555411184017331E-02  -1.574973953004997E-02  -1.594782718917115E-02
  -1.614840573247045E-02  -1.635150646268627E-02  -1.655716107519934E-02
  -1.676540166292968E-02  -1.697626072129347E-02  -1.718977115322059E-02
  -1.740596627423363E-02  -1.762487981758896E-02  -1.784654593948053E-02
  -1.807099922430734E-02  -1.829827469000502E-02  -1.852840779344248E-02
  -1.876143443588422E-02  -1.899739096851915E-02  -1.923631419805666E-02
  -1.947824139239050E-02  -1.972321028633156E-02  -1.997125908741009E-02
  -2.022242648174818E-02  -2.047675164000336E-02  -2.073427422338391E-02
  -2.099503438973694E-02  -2.125907279970988E-02  -2.152643062298609E-02
  -2.179714954459578E-02  -2.207127177130239E-02  -2.234884003806605E-02
  -2.262989761458429E-02  -2.291448831191120E-02  -2.320265648915575E-02
  -2.349444706026003E-02  -2.378990550085849E-02  -2.408907785521873E-02
  -2.439201074326499E-02  -2.469875136768502E-02  -2.500934752112105E-02
  -2.532384759344618E-02  -2.564230057912659E-02  -2.596475608467063E-02
  -2.629126433616587E-02  -2.662187618690444E-02  -2.695664312509817E-02
  -2.729561728168396E-02  -2.763885143822050E-02  -2.798639903487721E-02
  -2.833831417851596E-02  -2.869465165086705E-02  -2.905546691679979E-02
  -2.942081613268890E-02  -2.979075615487736E-02  -3.016534454823701E-02
  -3.054463959482710E-02  -3.092870030265245E-02  -3.131758641452155E-02
  -3.171135841700566E-02  -3.211007754949993E-02  -3.251380581338699E-02
  -3.292260598130434E-02  -3.333654160651618E-02  -3.375567703239050E-02
  -3.418007740198237E-02  -3.460980866772418E-02  -3.504493760122369E-02
  -3.548553180317083E-02  -3.593165971335380E-02  -3.638339062078569E-02
  -3.684079467394169E-02  -3.730394289110858E-02  -3.777290717084651E-02
  -3.824776030256419E-02  -3.872857597720822E-02  -3.921542879806690E-02
  -3.970839429168981E-02  -4.020754891892335E-02  -4.071297008606304E-02
  -4.122473615612339E-02  -4.174292646022555E-02  -4.226762130910372E-02
  -4.279890200473065E-02  -4.333685085206279E-02  -4.388155117090579E-02
  -4.443308730790026E-02  -4.499154464862888E-02  -4.555700962984489E-02
  -4.612956975182234E-02  -4.670931359082851E-02  -4.729633081171861E-02
  -4.789071218065316E-02  -4.849254957793821E-02  -4.910193601098832E-02
  -4.971896562741288E-02  -5.034373372822488E-02  -5.097633678117324E-02
  -5.161687243419769E-02  -5.226543952900652E-02  -5.292213811477688E-02
  -5.358706946197708E-02  -5.426033607631099E-02  -5.494204171278372E-02
  -5.563229138988814E-02  -5.633119140391192E-02  -5.703884934336370E-02
  -5.775537410351851E-02  -5.848087590108076E-02  -5.921546628896427E-02
  -5.995925817118835E-02  -6.071236581788788E-02  -6.147490488043731E-02
  -6.224699240668623E-02  -6.302874685630522E-02  -6.382028811624052E-02
  -6.462173751627504E-02  -6.543321784469450E-02  -6.625485336405609E-02
  -6.708676982705754E-02  -6.792909449250407E-02  -6.878195614137050E-02
  -6.964548509295598E-02  -7.051981322112832E-02  -7.140507397065438E-02
  -7.230140237361374E-02  -7.320893506589127E-02  -7.412781030374568E-02
  -7.505816798044930E-02  -7.600014964299520E-02  -7.695389850886719E-02
  -7.791955948286705E-02  -7.889727917399558E-02  -7.988720591238049E-02
  -8.088948976624628E-02  -8.190428255892074E-02  -8.293173788586999E-02
  -8.397201113175790E-02  -8.502525948752088E-02  -8.609164196745218E-02
  -8.717131942628741E-02  -8.826445457628297E-02  -8.937121200427989E-02
  -9.049175818874336E-02  -9.162626151676916E-02  -9.277489230104727E-02
  -9.393782279677171E-02  -9.511522721848709E-02  -9.630728175686001E-02
  -9.751416459536344E-02  -9.873605592686237E-02  -9.997313797008722E-02
  -1.012255949859822E-01  -1.024936132939145E-01  -1.037773812877287E-01
  -1.050770894516334E-01  -1.063929303759003E-01  -1.077250987723631E-01
  -1.090737914896957E-01  -1.104392075284532E-01  -1.118215480558555E-01
  -1.132210164202948E-01  -1.146378181655445E-01  -1.160721610446503E-01
  -1.175242550334792E-01  -1.189943123439027E-01  -1.204825474365909E-01
  -1.219891770333916E-01  -1.235144201292669E-01  -1.250584980037605E-01
  -1.266216342319673E-01  -1.282040546949728E-01  -1.298059875897341E-01
  -1.314276634383681E-01  -1.330693150968128E-01  -1.347311777628277E-01
  -1.364134889832946E-01  -1.381164886607831E-01  -1.398404190593384E-01
  -1.415855248094520E-01  -1.433520529121716E-01  -1.451402527423045E-01
  -1.469503760506701E-01  -1.487826769653517E-01  -1.506374119918972E-01
  -1.525148400124179E-01  -1.544152222835295E-01  -1.563388224330804E-01
  -1.582859064556079E-01  -1.602567427064623E-01  -1.622516018945354E-01
  -1.642707570735275E-01  -1.663144836316854E-01  -1.683830592799423E-01
  -1.704767640383827E-01  -1.725958802209613E-01  -1.747406924183914E-01
  -1.769114874791271E-01  -1.791085544883498E-01  -1.813321847448733E-01
  -1.835826717358765E-01  -1.858603111093676E-01  -1.881654006442838E-01
  -1.904982402181245E-01  -1.928591317720113E-01  -1.952483792730688E-01
  -1.976662886740097E-01  -2.001131678698109E-01  -2.025893266513574E-01
  -2.050950766559287E-01  -2.076307313143997E-01  -2.101966057950192E-01
  -2.127930169436295E-01  -2.154202832201821E-01  -2.180787246314006E-01
  -2.207686626594383E-01  -2.234904201863692E-01  -2.262443214143500E-01
  -2.290306917812827E-01  -2.318498578718005E-01  -2.347021473233982E-01
  -2.375878887275165E-01  -2.405074115253885E-01  -2.434610458984485E-01
  -2.464491226530945E-01  -2.494719730995944E-01  -2.525299289249114E-01
  -2.556233220592271E-01  -2.587524845359236E-01  -2.619177483447853E-01
  -2.651194452781730E-01  -2.683579067699084E-01  -2.716334637266121E-01
  -2.749464463512179E-01  -2.782971839583831E-01  -2.816860047815114E-01
  -2.851132357710828E-01  -2.885792023839946E-01  -2.920842283635922E-01
  -2.956286355100710E-01  -2.992127434409160E-01  -3.028368693410367E-01
  -3.065013277022520E-01  -3.102064300517610E-01  -3.139524846692334E-01
  -3.177397962921429E-01  -3.215686658089524E-01  -3.254393899397584E-01
  -3.293522609039859E-01  -3.333075660747180E-01  -3.373055876192366E-01
  -3.413466021253354E-01  -3.454308802129672E-01  -3.495586861307650E-01
  -3.537302773369800E-01  -3.579459040643621E-01  -3.622058088685006E-01
  -3.665102261591395E-01  -3.708593817139686E-01  -3.752534921743820E-01
  -3.796927645226960E-01  -3.841773955402993E-01  -3.887075712462136E-01
  -3.932834663155282E-01  -3.979052434771685E-01  -4.025730528904571E-01
  -4.072870314999120E-01  -4.120473023677375E-01  -4.168539739834468E-01
  -4.217071395500600E-01  -4.266068762463245E-01  -4.315532444643925E-01
  -4.365462870224074E-01  -4.415860283514450E-01  -4.466724736562592E-01
  -4.518056080492957E-01  -4.569853956574339E-01  -4.622117787009412E-01
  -4.674846765441230E-01  -4.728039847171731E-01  -4.781695739087457E-01
  -4.835812889287830E-01  -4.890389476411651E-01  -4.945423398657633E-01
  -5.000912262495127E-01  -5.056853371061492E-01  -5.113243712242876E-01
  -5.170079946435678E-01  -5.227358393986207E-01  -5.285075022306736E-01
  -5.343225432666517E-01  -5.401804846656935E-01  -5.460808092330655E-01
  -5.520229590015221E-01  -5.580063337802371E-01  -5.640302896715079E-01
  -5.700941375555200E-01  -5.761971415435626E-01  -5.823385174001752E-01
  -5.885174309348198E-01  -5.947329963637935E-01  -6.009842746432104E-01
  -6.072702717740361E-01  -6.135899370802809E-01  -6.199421614616254E-01
  -6.263257756219177E-01  -6.327395482751424E-01  -6.391821843306698E-01
  -6.456523230597726E-01  -6.521485362456204E-01  -6.586693263191845E-01
  -6.652131244837073E-01  -6.717782888306765E-01  -6.783631024504617E-01
  -6.849657715410863E-01  -6.915844235188965E-01  -6.982171051351705E-01
  -7.048617806030841E-01  -7.115163297397407E-01  -7.181785461283609E-01
  -7.248461353061066E-01  -7.315167129833644E-01  -7.381878033007782E-01
  -7.448568371306911E-01  -7.515211504301308E-01  -7.581779826529277E-01
  -7.648244752289992E-01  -7.714576701193750E-01  -7.780745084559838E-01
  -7.846718292757848E-01  -7.912463683593534E-01  -7.977947571845405E-01
  -8.043135220064435E-01  -8.107990830754270E-01  -8.172477540055548E-01
  -8.236557413063558E-01  -8.300191440914158E-01  -8.363339539779067E-01
  -8.425960551917023E-01  -8.488012248933363E-01  -8.549451337406195E-01
  -8.610233467042542E-01  -8.670313241533645E-01  -8.729644232283122E-01
  -8.788178995186796E-01  -8.845869090647311E-01  -8.902665107010278E-01
  -8.958516687612574E-01  -9.013372561635575E-01  -9.067180578958614E-01
  -9.119887749208936E-01  -9.171440285204583E-01  -9.221783650986142E-01
  -9.270862614630923E-01  -9.318621306040057E-01  -9.365003279884084E-01
  -9.409951583885957E-01  -9.453408832612353E-01  -9.495317286933485E-01
  -9.535618939299229E-01  -9.574255604964410E-01  -9.611169019278165E-01
  -9.646300941132135E-01  -9.679593262638142E-01  -9.710988125079318E-01
  -9.740428041147770E-01  -9.767856023447228E-01  -9.793215719200491E-01
  -9.816451551058024E-01  -9.837508863856177E-01  -9.856334077120342E-01
  -9.872874843049947E-01  -9.887080209658181E-01  -9.898900788669371E-01
  -9.908288927700857E-01  -9.915198886173707E-01  -9.919587014307462E-01
  -9.921411934458130E-01  -9.920634723955702E-01  -9.917219098487404E-01
  -9.911131594955590E-01  -9.902341752614835E-01  -9.890822291161185E-01
  -9.876549284308017E-01  -9.859502327237751E-01  -9.839664696167051E-01
  -9.817023498105701E-01  -9.791569808726625E-01  -9.763298796097309E-01
  -9.732209827852361E-01  -9.698306559213642E-01  -9.661596999090890E-01
  -9.622093551322072E-01  -9.579813027942359E-01  -9.534776631204598E-01
  -9.487009900915356E-01  -9.436542623502600E-01  -9.383408699095099E-01
  -9.327645962776262E-01  -9.269295956076964E-01  -9.208403644700335E-01
  -9.145017078429694E-01  -9.079186989164449E-01  -9.010966323064395E-01
  -8.940409702865632E-01  -8.867572816569279E-01  -8.792511728903682E-01
  -8.715282112230135E-01  -8.635938393909480E-01  -8.554532817580782E-01
  -8.471114416332323E-01  -8.385727896379911E-01  -8.298412430615096E-01
  -8.209200362258806E-01  -8.118115819860823E-01  -8.025173246033668E-01
  -7.930375843609135E-01  -7.833713944364198E-01  -7.735184259582145E-01
  -7.634857095705559E-01  -7.532823171555174E-01  -7.429173995561115E-01
  -7.324001749347910E-01  -7.217399171371046E-01  -7.109459440817540E-01
  -7.000276061806415E-01  -6.889942748314243E-01  -6.778553309766343E-01
  -6.666201537552988E-01  -6.552981092609157E-01  -6.438985394207805E-01
  -6.324307510111079E-01  -6.209040048218688E-01  -6.093275049847257E-01
  -5.977103884769417E-01  -5.860617148136137E-01  -5.743904559401114E-01
  -5.627054863361333E-01  -5.510155733423324E-01  -5.393293677200292E-01
  -5.276553944541174E-01  -5.160020438088773E-01  -5.043775626460355E-01
  -4.927900460140537E-01  -4.812474290172986E-01  -4.697574789734192E-01
  -4.583277878669608E-01  -4.469657651069495E-01  -4.356786305959054E-01
  -4.244734081174750E-01  -4.133569190496059E-01  -4.023357764099333E-01
  -3.914163792397875E-01  -3.806049073329703E-01  -3.699073163151879E-01
  -3.593293330797500E-01  -3.488764515848629E-01  -3.385539290175451E-01
  -3.283667823288776E-01  -3.183197851449646E-01  -3.084174650576212E-01
  -2.986641012984184E-01  -2.890637227993044E-01  -2.796201066425782E-01
  -2.703367769025151E-01  -2.612170038804388E-01  -2.522638037344896E-01
  -2.434799385047643E-01  -2.348679165338882E-01  -2.264299932824310E-01
  -2.181681725378990E-01  -2.100842080153126E-01  -2.021796053466315E-01
  -1.944556244555079E-01  -1.869132823130325E-01  -1.795533560693059E-01
  -1.723763865548012E-01  -1.653826821446035E-01  -1.585723229777112E-01
  -1.519451655226734E-01  -1.455008474799150E-01  -1.392387930101784E-01
  -1.331582182775860E-01  -1.272581372949116E-01  -1.215373680577423E-01
  -1.159945389533256E-01  -1.106280954290301E-01  -1.054363069045101E-01
  -1.004172739108653E-01  -9.556893543931909E-02  -9.088907648122480E-02
  -8.637533574054206E-02  -8.202521349931502E-02  -7.783607961613499E-02
  -7.380518163708871E-02  -6.992965299828083E-02  -6.620652129868256E-02
  -6.263271662180059E-02  -5.920507988448410E-02  -5.592037119109639E-02
  -5.277527817127451E-02  -4.976642427958447E-02  -4.689037703555599E-02
  -4.414365618284712E-02  -4.152274174664657E-02  -3.902408196887035E-02
  -3.664410110124650E-02  -3.437920703700754E-02  -3.222579876262051E-02
  -3.018027361177741E-02  -2.823903430474035E-02  -2.639849575708147E-02
  -2.465509164287328E-02  -2.300528069846509E-02  -2.144555275411974E-02
  -1.997243448197603E-02  -1.858249485003914E-02  -1.727235027317711E-02
  -1.603866945340903E-02  -1.487817790310171E-02  -1.378766214603990E-02
  -1.276397359269096E-02  -1.180403208734205E-02  -1.090482912613727E-02
  -1.006343074637639E-02  -9.276980088748226E-03  -8.542699635451984E-03
  -7.857893128403208E-03  -7.219947172918270E-03  -6.626332533418005E-03
  -6.074605128779385E-03  -5.562406735989137E-03  -5.087465411709314E-03
  -4.647595642247423E-03  -4.240698233228802E-03  -3.864759950992828E-03
  -3.517852928374636E-03  -3.198133848087998E-03  -2.903842917391467E-03
  -2.633302648097925E-03  -2.384916456277301E-03  -2.157167096203815E-03
  -1.948614943214016E-03  -1.757896140171784E-03  -1.583720622183936E-03
  -1.424870034078035E-03  -1.280195554945969E-03  -1.148615643776974E-03
  -1.029113719856377E-03  -9.207357911963524E-04  -8.225880437976575E-04
  -7.338344040220120E-04  -6.536940857893437E-04  -5.814391337083193E-04
  -5.163919726084306E-04  -4.579229732734426E-04  -4.054480434852047E-04
  -3.584262527796749E-04  -3.163574985992992E-04  -2.787802208032917E-04
  -2.452691707753212E-04  -2.154332406517972E-04  -1.889133574882416E-04
  -1.653804464906913E-04  -1.445334667678701E-04  -1.260975224118201E-04
  -1.098220510931587E-04  -9.547909176514656E-05  -8.286163251082696E-05
  -7.178203904179104E-05  -6.207056386730497E-05  -5.357393569990367E-05
  -4.615402824896764E-05  -3.968660717773548E-05  -3.406015366175875E-05
  -2.917476268773782E-05  -2.494111397029873E-05  -2.127951314023668E-05
  -1.811900066792697E-05  -1.539652583334812E-05  -1.305618293078025E-05
  -1.104850680503047E-05  -9.329824756809084E-06  -7.861661817827630E-06
  -6.610196386226880E-06  -5.545763228485702E-06  -4.642400867634666E-06
  -3.877440641955862E-06  -3.231132703806666E-06  -2.686319202633061E-06
  -2.228095559082941E-06  -1.843615999210021E-06  -1.521799242678039E-06
  -1.253074885417195E-06  -1.029215151203577E-06  -8.431715541631560E-07
  -6.889201917274340E-07  -5.613248525894915E-07  -4.560161626901509E-07
  -3.692851114785821E-07  -2.979894144226353E-07  -2.394712587505050E-07
  -1.914851611154671E-07  -1.521341854474648E-07  -1.198160951391275E-07
  -9.316539151048110E-08  -7.113875746384720E-08  -5.218505170938749E-08
   0.000000000000000E+00   0.000000000000000E+00   0.000000000000000E+00
   0.000000000000000E+00   0.000000000000000E+00   0.000000000000000E+00
   0.000000000000000E+00   0.000000000000000E+00   0.000000000000000E+00
   0.000000000000000E+00   0.000000000000000E+00   0.000000000000000E+00
   0.000000000000000E+00   0.000000000000000E+00   0.000000000000000E+00
   0.000000000000000E+00   0.000000000000000E+00   0.000000000000000E+00
   0.000000000000000E+00   0.000000000000000E+00   0.000000000000000E+00
   0.000000000000000E+00   0.000000000000000E+00   0.000000000000000E+00
   0.000000000000000E+00   0.000000000000000E+00   0.000000000000000E+00
   0.000000000000000E+00   0.000000000000000E+00   0.000000000000000E+00
   0.000000000000000E+00   0.000000000000000E+00   0.000000000000000E+00
   0.000000000000000E+00   0.000000000000000E+00   0.000000000000000E+00
   0.000000000000000E+00   0.000000000000000E+00   0.000000000000000E+00
   0.000000000000000E+00   0.000000000000000E+00   0.000000000000000E+00
   0.000000000000000E+00   0.000000000000000E+00   0.000000000000000E+00
   0.000000000000000E+00   0.000000000000000E+00   0.000000000000000E+00
   0.000000000000000E+00   0.000000000000000E+00   0.000000000000000E+00
   0.000000000000000E+00   0.000000000000000E+00   0.000000000000000E+00
   0.000000000000000E+00   0.000000000000000E+00   0.000000000000000E+00
   0.000000000000000E+00   0.000000000000000E+00   0.000000000000000E+00
   0.000000000000000E+00   0.000000000000000E+00   0.000000000000000E+00
   0.000000000000000E+00   0.000000000000000E+00   0.000000000000000E+00
   0.000000000000000E+00   0.000000000000000E+00   0.000000000000000E+00
   0.000000000000000E+00   0.000000000000000E+00   0.000000000000000E+00
   0.000000000000000E+00   0.000000000000000E+00   0.000000000000000E+00
   0.000000000000000E+00   0.000000000000000E+00   0.000000000000000E+00
   0.000000000000000E+00   0.000000000000000E+00   0.000000000000000E+00
   0.000000000000000E+00   0.000000000000000E+00   0.000000000000000E+00
   0.000000000000000E+00   0.000000000000000E+00   0.000000000000000E+00
   0.000000000000000E+00   0.000000000000000E+00   0.000000000000000E+00
   0.000000000000000E+00   0.000000000000000E+00   0.000000000000000E+00
   0.000000000000000E+00   0.000000000000000E+00   0.000000000000000E+00
   0.000000000000000E+00   0.000000000000000E+00   0.000000000000000E+00
   0.000000000000000E+00   0.000000000000000E+00   0.000000000000000E+00
   0.000000000000000E+00   0.000000000000000E+00   0.000000000000000E+00
   0.000000000000000E+00   0.000000000000000E+00   0.000000000000000E+00
   0.000000000000000E+00   0.000000000000000E+00   0.000000000000000E+00
   0.000000000000000E+00   0.000000000000000E+00   0.000000000000000E+00
   0.000000000000000E+00   0.000000000000000E+00   0.000000000000000E+00
   0.000000000000000E+00   0.000000000000000E+00   0.000000000000000E+00
   0.000000000000000E+00   0.000000000000000E+00   0.000000000000000E+00
   0.000000000000000E+00   0.000000000000000E+00   0.000000000000000E+00
   0.000000000000000E+00   0.000000000000000E+00   0.000000000000000E+00
   0.000000000000000E+00   0.000000000000000E+00   0.000000000000000E+00
   0.000000000000000E+00   0.000000000000000E+00   0.000000000000000E+00
   0.000000000000000E+00   0.000000000000000E+00   0.000000000000000E+00
   0.000000000000000E+00   0.000000000000000E+00   0.000000000000000E+00
   0.000000000000000E+00   0.000000000000000E+00   0.000000000000000E+00
   0.000000000000000E+00   0.000000000000000E+00   0.000000000000000E+00
   0.000000000000000E+00   0.000000000000000E+00   0.000000000000000E+00
   0.000000000000000E+00   0.000000000000000E+00   0.000000000000000E+00
   0.000000000000000E+00   0.000000000000000E+00   0.000000000000000E+00
    </PP_PSWFC.1>
    <PP_PSWFC.2 size="1095" index="2" label="2S" l="0">
  -2.111875926714790E-04  -2.138440054887347E-04  -2.165338318627070E-04
  -2.192574920840782E-04  -2.220154117301326E-04  -2.248080217312525E-04
  -2.276357584382520E-04  -2.304990636905578E-04  -2.333983848852466E-04
  -2.363341750469530E-04  -2.393068928986531E-04  -2.423170029333422E-04
  -2.453649754866119E-04  -2.484512868101403E-04  -2.515764191461086E-04
  -2.547408608025497E-04  -2.579451062296487E-04  -2.611896560970007E-04
  -2.644750173718408E-04  -2.678017033982599E-04  -2.711702339774131E-04
  -2.745811354487409E-04  -2.780349407722094E-04  -2.815321896115868E-04
  -2.850734284187662E-04  -2.886592105191485E-04  -2.922900961981011E-04
  -2.959666527885029E-04  -2.996894547593900E-04  -3.034590838057185E-04
  -3.072761289392531E-04  -3.111411865806022E-04  -3.150548606524083E-04
  -3.190177626737119E-04  -3.230305118555024E-04  -3.270937351974693E-04
  -3.312080675859716E-04  -3.353741518932402E-04  -3.395926390778259E-04
  -3.438641882863141E-04  -3.481894669563145E-04  -3.525691509207502E-04
  -3.570039245134567E-04  -3.614944806761093E-04  -3.660415210664967E-04
  -3.706457561681532E-04  -3.753079054013742E-04  -3.800286972356248E-04
  -3.848088693033638E-04  -3.896491685152997E-04  -3.945503511770943E-04
  -3.995131831075370E-04  -4.045384397582033E-04  -4.096269063346195E-04
  -4.147793779189523E-04  -4.199966595942384E-04  -4.252795665701806E-04
  -4.306289243105228E-04  -4.360455686620299E-04  -4.415303459850889E-04
  -4.470841132859511E-04  -4.527077383506405E-04  -4.584020998805448E-04
  -4.641680876297113E-04  -4.700066025438732E-04  -4.759185569012186E-04
  -4.819048744549359E-04  -4.879664905775488E-04  -4.941043524070674E-04
  -5.003194189949792E-04  -5.066126614560988E-04  -5.129850631203038E-04
  -5.194376196861798E-04  -5.259713393765974E-04  -5.325872430962458E-04
  -5.392863645911475E-04  -5.460697506101803E-04  -5.529384610686301E-04
  -5.598935692138020E-04  -5.669361617927129E-04  -5.740673392218941E-04
  -5.812882157593296E-04  -5.885999196785570E-04  -5.960035934449578E-04
  -6.035003938942671E-04  -6.110914924133242E-04  -6.187780751231006E-04
  -6.265613430640295E-04  -6.344425123836636E-04  -6.424228145266977E-04
  -6.505034964273765E-04  -6.586858207043251E-04  -6.669710658578304E-04
  -6.753605264696028E-04  -6.838555134050506E-04  -6.924573540180980E-04
  -7.011673923585803E-04  -7.099869893822462E-04  -7.189175231634029E-04
  -7.279603891102368E-04  -7.371170001828362E-04  -7.463887871139647E-04
  -7.557771986326046E-04  -7.652837016903158E-04  -7.749097816904419E-04
  -7.846569427201926E-04  -7.945267077856552E-04  -8.045206190497536E-04
  -8.146402380732035E-04  -8.248871460585011E-04  -8.352629440969719E-04
  -8.457692534189350E-04  -8.564077156470113E-04  -8.671799930526141E-04
  -8.780877688156726E-04  -8.891327472876132E-04  -9.003166542576554E-04
  -9.116412372224533E-04  -9.231082656591291E-04  -9.347195313017432E-04
  -9.464768484212343E-04  -9.583820541088880E-04  -9.704370085633653E-04
  -9.826435953813443E-04  -9.950037218518165E-04  -1.007519319254079E-03
  -1.020192343159485E-03  -1.033024773736977E-03  -1.046018616062472E-03
  -1.059175900432137E-03  -1.072498682679593E-03  -1.085989044497124E-03
  -1.099649093760916E-03  -1.113480964860386E-03  -1.127486819031663E-03
  -1.141668844695242E-03  -1.156029257797908E-03  -1.170570302158946E-03
  -1.185294249820703E-03  -1.200203401403574E-03  -1.215300086465430E-03
  -1.230586663865584E-03  -1.246065522133328E-03  -1.261739079841099E-03
  -1.277609785982352E-03  -1.293680120354165E-03  -1.309952593944670E-03
  -1.326429749325355E-03  -1.343114161048290E-03  -1.360008436048363E-03
  -1.377115214050551E-03  -1.394437167982341E-03  -1.411977004391311E-03
  -1.429737463867978E-03  -1.447721321473963E-03  -1.465931387175523E-03
  -1.484370506282557E-03  -1.503041559893114E-03  -1.521947465343502E-03
  -1.541091176664055E-03  -1.560475685040617E-03  -1.580104019281849E-03
  -1.599979246292399E-03  -1.620104471552021E-03  -1.640482839600730E-03
  -1.661117534530034E-03  -1.682011780480371E-03  -1.703168842144777E-03
  -1.724592025278892E-03  -1.746284677217397E-03  -1.768250187396901E-03
  -1.790491987885458E-03  -1.813013553918688E-03  -1.835818404442674E-03
  -1.858910102663673E-03  -1.882292256604720E-03  -1.905968519669273E-03
  -1.929942591211890E-03  -1.954218217116120E-03  -1.978799190379648E-03
  -2.003689351706773E-03  -2.028892590108381E-03  -2.054412843509408E-03
  -2.080254099363974E-03  -2.106420395278241E-03  -2.132915819641077E-03
  -2.159744512262696E-03  -2.186910665021272E-03  -2.214418522517710E-03
  -2.242272382738655E-03  -2.270476597727787E-03  -2.299035574265626E-03
  -2.327953774557805E-03  -2.357235716932045E-03  -2.386885976543875E-03
  -2.416909186091198E-03  -2.447310036537882E-03  -2.478093277846400E-03
  -2.509263719719696E-03  -2.540826232352389E-03  -2.572785747191366E-03
  -2.605147257706004E-03  -2.637915820167998E-03  -2.671096554441034E-03
  -2.704694644780379E-03  -2.738715340642475E-03  -2.773163957504776E-03
  -2.808045877695817E-03  -2.843366551235740E-03  -2.879131496687402E-03
  -2.915346302018106E-03  -2.952016625472250E-03  -2.989148196454848E-03
  -3.026746816426203E-03  -3.064818359807815E-03  -3.103368774899617E-03
  -3.142404084808811E-03  -3.181930388390292E-03  -3.221953861198930E-03
  -3.262480756453797E-03  -3.303517406014478E-03  -3.345070221369704E-03
  -3.387145694638313E-03  -3.429750399582846E-03  -3.472890992635857E-03
  -3.516574213939049E-03  -3.560806888395560E-03  -3.605595926735354E-03
  -3.650948326594049E-03  -3.696871173605276E-03  -3.743371642506706E-03
  -3.790456998260039E-03  -3.838134597184956E-03  -3.886411888107367E-03
  -3.935296413522057E-03  -3.984795810769868E-03  -4.034917813229739E-03
  -4.085670251525614E-03  -4.137061054748550E-03  -4.189098251694136E-03
  -4.241789972115400E-03  -4.295144447991508E-03  -4.349170014812291E-03
  -4.403875112878926E-03  -4.459268288620926E-03  -4.515358195929619E-03
  -4.572153597508377E-03  -4.629663366239737E-03  -4.687896486569685E-03
  -4.746862055909290E-03  -4.806569286053881E-03  -4.867027504620047E-03
  -4.928246156500594E-03  -4.990234805337782E-03  -5.053003135014989E-03
  -5.116560951167062E-03  -5.180918182709605E-03  -5.246084883387395E-03
  -5.312071233342205E-03  -5.378887540700259E-03  -5.446544243179549E-03
  -5.515051909717299E-03  -5.584421242117750E-03  -5.654663076720636E-03
  -5.725788386090482E-03  -5.797808280727063E-03  -5.870734010797267E-03
  -5.944576967888608E-03  -6.019348686784666E-03  -6.095060847262766E-03
  -6.171725275914071E-03  -6.249353947986500E-03  -6.327958989250622E-03
  -6.407552677888900E-03  -6.488147446408542E-03  -6.569755883578230E-03
  -6.652390736389074E-03  -6.736064912040015E-03  -6.820791479948051E-03
  -6.906583673783553E-03  -6.993454893530971E-03  -7.081418707575279E-03
  -7.170488854814428E-03  -7.260679246798173E-03  -7.352003969893568E-03
  -7.444477287477441E-03  -7.538113642156249E-03  -7.632927658013546E-03
  -7.728934142885484E-03  -7.826148090664684E-03  -7.924584683632730E-03
  -8.024259294821796E-03  -8.125187490405581E-03  -8.227385032120071E-03
  -8.330867879714382E-03  -8.435652193432086E-03  -8.541754336523412E-03
  -8.649190877788640E-03  -8.757978594153138E-03  -8.868134473274374E-03
  -8.979675716181293E-03  -9.092619739946474E-03  -9.206984180391453E-03
  -9.322786894825595E-03  -9.440045964818971E-03  -9.558779699009534E-03
  -9.679006635945193E-03  -9.800745546960990E-03  -9.924015439091979E-03
  -1.004883555802214E-02  -1.017522539106975E-02  -1.030320467020974E-02
  -1.043279337513336E-02  -1.056401173634567E-02  -1.069688023830131E-02
  -1.083141962257896E-02  -1.096765089109500E-02  -1.110559530935674E-02
  -1.124527440975585E-02  -1.138670999490230E-02  -1.152992414099936E-02
  -1.167493920126021E-02  -1.182177780936644E-02  -1.197046288296922E-02
  -1.212101762723338E-02  -1.227346553842506E-02  -1.242783040754337E-02
  -1.258413632399657E-02  -1.274240767932334E-02  -1.290266917095956E-02
  -1.306494580605135E-02  -1.322926290531448E-02  -1.339564610694117E-02
  -1.356412137055453E-02  -1.373471498121121E-02  -1.390745355345295E-02
  -1.408236403540735E-02  -1.425947371293867E-02  -1.443881021384909E-02
  -1.462040151213100E-02  -1.480427593227096E-02  -1.499046215360574E-02
  -1.517898921473133E-02  -1.536988651796517E-02  -1.556318383386241E-02
  -1.575891130578679E-02  -1.595709945453651E-02  -1.615777918302605E-02
  -1.636098178102428E-02  -1.656673892994952E-02  -1.677508270772234E-02
  -1.698604559367644E-02  -1.719966047352845E-02  -1.741596064440721E-02
  -1.763497981994317E-02  -1.785675213541855E-02  -1.808131215297883E-02
  -1.830869486690630E-02  -1.853893570895635E-02  -1.877207055375697E-02
  -1.900813572427239E-02  -1.924716799733113E-02  -1.948920460921953E-02
  -1.973428326134118E-02  -1.998244212594289E-02  -2.023371985190804E-02
  -2.048815557061774E-02  -2.074578890188073E-02  -2.100665995993246E-02
  -2.127080935950409E-02  -2.153827822196227E-02  -2.180910818151990E-02
  -2.208334139151915E-02  -2.236102053078688E-02  -2.264218881006342E-02
  -2.292688997850538E-02  -2.321516833026291E-02  -2.350706871113236E-02
  -2.380263652528491E-02  -2.410191774207169E-02  -2.440495890290633E-02
  -2.471180712822526E-02  -2.502251012452664E-02  -2.533711619148860E-02
  -2.565567422916718E-02  -2.597823374527482E-02  -2.630484486254014E-02
  -2.663555832614905E-02  -2.697042551126866E-02  -2.730949843065390E-02
  -2.765282974233774E-02  -2.800047275740568E-02  -2.835248144785474E-02
  -2.870891045453797E-02  -2.906981509519472E-02  -2.943525137256724E-02
  -2.980527598260443E-02  -3.017994632275273E-02  -3.055932050033513E-02
  -3.094345734101862E-02  -3.133241639737042E-02  -3.172625795750372E-02
  -3.212504305381291E-02  -3.252883347179926E-02  -3.293769175898694E-02
  -3.335168123393008E-02  -3.377086599531111E-02  -3.419531093113038E-02
  -3.462508172798796E-02  -3.506024488045732E-02  -3.550086770055130E-02
  -3.594701832728077E-02  -3.639876573630554E-02  -3.685617974967845E-02
  -3.731933104568201E-02  -3.778829116875797E-02  -3.826313253952985E-02
  -3.874392846491802E-02  -3.923075314834776E-02  -3.972368170004973E-02
  -4.022279014745277E-02  -4.072815544566899E-02  -4.123985548807035E-02
  -4.175796911695689E-02  -4.228257613431588E-02  -4.281375731267145E-02
  -4.335159440602417E-02  -4.389617016087985E-02  -4.444756832736691E-02
  -4.500587367044157E-02  -4.557117198117993E-02  -4.614355008815607E-02
  -4.672309586890473E-02  -4.730989826146811E-02  -4.790404727602490E-02
  -4.850563400660053E-02  -4.911475064285743E-02  -4.973149048196270E-02
  -5.035594794053297E-02  -5.098821856665351E-02  -5.162839905197016E-02
  -5.227658724385206E-02  -5.293288215762240E-02  -5.359738398885588E-02
  -5.427019412573918E-02  -5.495141516149286E-02  -5.564115090685134E-02
  -5.633950640259758E-02  -5.704658793215032E-02  -5.776250303419968E-02
  -5.848736051538782E-02  -5.922127046303122E-02  -5.996434425787994E-02
  -6.071669458691038E-02  -6.147843545614694E-02  -6.224968220350754E-02
  -6.303055151166895E-02  -6.382116142094560E-02  -6.462163134217778E-02
  -6.543208206962270E-02  -6.625263579384245E-02  -6.708341611458338E-02
  -6.792454805363883E-02  -6.877615806769015E-02  -6.963837406111718E-02
  -7.051132539877153E-02  -7.139514291870441E-02  -7.228995894484032E-02
  -7.319590729958862E-02  -7.411312331638316E-02  -7.504174385214066E-02
  -7.598190729962799E-02  -7.693375359972718E-02  -7.789742425358825E-02
  -7.887306233465749E-02  -7.986081250056958E-02  -8.086082100489141E-02
  -8.187323570870327E-02  -8.289820609200556E-02  -8.393588326493508E-02
  -8.498641997877722E-02  -8.604997063675793E-02  -8.712669130459903E-02
  -8.821673972082082E-02  -8.932027530677343E-02  -9.043745917637908E-02
  -9.156845414556625E-02  -9.271342474137445E-02  -9.387253721071091E-02
  -9.504595952873561E-02  -9.623386140685275E-02  -9.743641430028585E-02
  -9.865379141520986E-02  -9.988616771541733E-02  -1.011337199284900E-01
  -1.023966265514493E-01  -1.036750678558563E-01  -1.049692258923314E-01
  -1.062792844944623E-01  -1.076054292820683E-01  -1.089478476637867E-01
  -1.103067288389462E-01  -1.116822637986906E-01  -1.130746453263155E-01
  -1.144840679967776E-01  -1.159107281753365E-01  -1.173548240152856E-01
  -1.188165554547269E-01  -1.202961242123466E-01  -1.217937337821403E-01
  -1.233095894270395E-01  -1.248438981713881E-01  -1.263968687922143E-01
  -1.279687118092431E-01  -1.295596394735906E-01  -1.311698657550804E-01
  -1.327996063281209E-01  -1.344490785560754E-01  -1.361185014740627E-01
  -1.378080957701138E-01  -1.395180837646151E-01  -1.412486893879632E-01
  -1.430001381563508E-01  -1.447726571456061E-01  -1.465664749630003E-01
  -1.483818217169366E-01  -1.502189289844308E-01  -1.520780297762900E-01
  -1.539593584998931E-01  -1.558631509194724E-01  -1.577896441137925E-01
  -1.597390764311201E-01  -1.617116874413698E-01  -1.637077178853150E-01
  -1.657274096207412E-01  -1.677710055654180E-01  -1.698387496367640E-01
  -1.719308866880680E-01  -1.740476624411327E-01  -1.761893234151969E-01
  -1.783561168519892E-01  -1.805482906367625E-01  -1.827660932151476E-01
  -1.850097735056698E-01  -1.872795808077539E-01  -1.895757647050465E-01
  -1.918985749638768E-01  -1.942482614266655E-01  -1.966250739000948E-01
  -1.990292620378380E-01  -2.014610752176441E-01  -2.039207624125662E-01
  -2.064085720561144E-01  -2.089247519011078E-01  -2.114695488719933E-01
  -2.140432089103896E-01  -2.166459768136103E-01  -2.192780960659070E-01
  -2.219398086621739E-01  -2.246313549238368E-01  -2.273529733066503E-01
  -2.301049002001131E-01  -2.328873697182034E-01  -2.357006134811300E-01
  -2.385448603877834E-01  -2.414203363785613E-01  -2.443272641882392E-01
  -2.472658630885355E-01  -2.502363486200269E-01  -2.532389323130465E-01
  -2.562738213971924E-01  -2.593412184990677E-01  -2.624413213278541E-01
  -2.655743223483222E-01  -2.687404084408601E-01  -2.719397605481000E-01
  -2.751725533077078E-01  -2.784389546708889E-01  -2.817391255061588E-01
  -2.850732191879090E-01  -2.884413811692945E-01  -2.918437485389544E-01
  -2.952804495610665E-01  -2.987516031982326E-01  -3.022573186166728E-01
  -3.057976946732003E-01  -3.093728193834431E-01  -3.129827693707565E-01
  -3.166276092952794E-01  -3.203073912625604E-01  -3.240221542111813E-01
  -3.277719232787983E-01  -3.315567091460008E-01  -3.353765073574025E-01
  -3.392312976193476E-01  -3.431210430736297E-01  -3.470456895466051E-01
  -3.510051647730775E-01  -3.549993775943344E-01  -3.590282171297078E-01
  -3.630915519210309E-01  -3.671892290493647E-01  -3.713210732233658E-01
  -3.754868858386764E-01  -3.796864440077118E-01  -3.839194995592362E-01
  -3.881857780071198E-01  -3.924849774876785E-01  -3.968167676650169E-01
  -4.011807886038014E-01  -4.055766496089099E-01  -4.100039280314270E-01
  -4.144621680404662E-01  -4.189508793603394E-01  -4.234695359726087E-01
  -4.280175747825972E-01  -4.325943942499661E-01  -4.371993529830009E-01
  -4.418317682963061E-01  -4.464909147316395E-01  -4.511760225416812E-01
  -4.558862761365846E-01  -4.606208124932197E-01  -4.653787195270908E-01
  -4.701590344269793E-01  -4.749607419524473E-01  -4.797827726944232E-01
  -4.846240012991780E-01  -4.894832446561152E-01  -4.943592600498905E-01
  -4.992507432775045E-01  -5.041563267311305E-01  -5.090745774475719E-01
  -5.140039951253914E-01  -5.189430101109005E-01  -5.238899813543574E-01
  -5.288431943379018E-01  -5.338008589769219E-01  -5.387611074967583E-01
  -5.437219922868408E-01  -5.486814837345737E-01  -5.536374680415150E-01
  -5.585877450246264E-01  -5.635300259056376E-01  -5.684619310918150E-01
  -5.733809879517127E-01  -5.782846285897830E-01  -5.831701876240011E-01
  -5.880348999710121E-01  -5.928758986436058E-01  -5.976902125656895E-01
  -6.024747644102905E-01  -6.072263684664626E-01  -6.119417285413988E-01
  -6.166174359044059E-01  -6.212499672798314E-01  -6.258356828964562E-01
  -6.303708246012690E-01  -6.348515140460216E-01  -6.392737509553724E-01
  -6.436334114859164E-01  -6.479262466858472E-01  -6.521478810654679E-01
  -6.562938112892469E-01  -6.603594050005811E-01  -6.643398997909030E-01
  -6.682304023252477E-01  -6.720258876368351E-01  -6.757211986037084E-01
  -6.793110456208753E-01  -6.827900064818528E-01  -6.861525264839052E-01
  -6.893929187716400E-01  -6.925053649339938E-01  -6.954839158699362E-01
  -6.983224929385042E-01  -7.010148894090168E-01  -7.035547722274762E-01
  -7.059356841153082E-01  -7.081510460166232E-01  -7.101941599101789E-01
  -7.120582120021210E-01  -7.137362763153851E-01  -7.152213186913735E-01
  -7.165062012191208E-01  -7.175836871066663E-01  -7.184464460087332E-01
  -7.190870598240476E-01  -7.194980289747585E-01  -7.196717791793554E-01
  -7.196006687293048E-01  -7.192769962782543E-01  -7.186930091511242E-01
  -7.178409121787034E-01  -7.167128770614635E-01  -7.153010522642392E-01
  -7.135975734411449E-01  -7.115945743876448E-01  -7.092841985140363E-01
  -7.066586108317815E-01  -7.037100104411009E-01  -7.004306435050539E-01
  -6.968128166919987E-01  -6.928489110648308E-01  -6.885313963918095E-01
  -6.838528458500865E-01  -6.788059510892973E-01  -6.733835376188332E-01
  -6.675785804786413E-01  -6.613842201497804E-01  -6.547937786574330E-01
  -6.478007758157727E-01  -6.403989455611219E-01  -6.325822523171833E-01
  -6.243449073340462E-01  -6.156813849411337E-01  -6.065864386534408E-01
  -5.970551170705383E-01  -5.870827795088149E-01  -5.766651113097412E-01
  -5.657981387704846E-01  -5.544782436482873E-01  -5.427021771969005E-01
  -5.304670737020021E-01  -5.177704634934674E-01  -5.046102854254954E-01
  -4.909848988313278E-01  -4.768930949778883E-01  -4.623341080670500E-01
  -4.473076258550431E-01  -4.318137999895021E-01  -4.158532561952513E-01
  -3.994271044752997E-01  -3.825369495324696E-01  -3.651849016601122E-01
  -3.473735883970561E-01  -3.291061672924565E-01  -3.103863401804206E-01
  -2.912183694216809E-01  -2.716070966301982E-01  -2.515579644654934E-01
  -2.310770421363511E-01  -2.101710553275074E-01  -1.888474213266973E-01
  -1.671142901943110E-01  -1.449805928799078E-01  -1.224560972475994E-01
  -9.955147302391221E-02  -7.627836672451509E-02  -5.264966538806599E-02
  -2.867995532539636E-02  -4.384751083151731E-03   2.021970727489858E-02
   4.511644063698259E-02   7.028771718911178E-02   9.571503867378596E-02
   1.213791266030821E-01   1.472599084730660E-01   1.733365040321997E-01
   1.995872116624166E-01   2.259894949377889E-01   2.525199694322326E-01
   2.791543898544622E-01   3.058676375954353E-01   3.326337087808049E-01
   3.594257029284121E-01   3.862158123186172E-01   4.129753121932517E-01
   4.396745519072018E-01   4.662829471650695E-01   4.927689734839855E-01
   5.191001610324913E-01   5.452430910044119E-01   5.711633936958210E-01
   5.968257484625120E-01   6.221938857448370E-01   6.472305913563086E-01
   6.718977132419790E-01   6.961561709222637E-01   7.199659678475369E-01
   7.432862068984675E-01   7.660751092766166E-01   7.882900370392640E-01
   8.098875195416978E-01   8.308232840592330E-01   8.510522908699725E-01
   8.705287730876854E-01   8.892062815421060E-01   9.070377350113392E-01
   9.239754761178165E-01   9.399713332052609E-01   9.549766885192876E-01
   9.689425530184509E-01   9.818196481456233E-01   9.935584948913966E-01
   1.004109510481578E+00   1.013423113019629E+00   1.021449834411887E+00
   1.028140441898394E+00   1.033446068504947E+00   1.037318352722287E+00
   1.039709587705988E+00   1.040572880275252E+00   1.039862319970185E+00
   1.037533158404986E+00   1.033541999128388E+00   1.027846998172430E+00
   1.020408075435726E+00   1.011187137007591E+00   1.000148308494179E+00
   9.872581793568158E-01   9.724860582155906E-01   9.558042390074953E-01
   9.371882778175618E-01   9.166172801231033E-01   8.940741981048241E-01
   8.695461375837783E-01   8.430246740394824E-01   8.145061770514547E-01
   7.839921423836358E-01   7.514895307981407E-01   7.170111125411942E-01
   6.805758162895936E-01   6.422090811803054E-01   6.019432103686225E-01
   5.598177243715163E-01   5.158797122523432E-01   4.701841784909581E-01
   4.227943831596901E-01   3.737821727908718E-01   3.232282990761375E-01
   2.712227222821955E-01   2.178648960030978E-01   1.632640295963139E-01
   1.075393243705438E-01   5.082017930889923E-02  -6.753638176127789E-03
  -6.503186124718048E-02  -1.238536374826393E-01  -1.830474929096085E-01
  -2.424313518558603E-01  -3.018126185038538E-01  -3.609883262678809E-01
  -4.197453613292244E-01  -4.778607668477952E-01  -5.351021345152389E-01
  -5.912280902164134E-01  -6.459888806151833E-01  -6.991270674676087E-01
  -7.503783363810493E-01  -7.994724265708973E-01  -8.461341879062960E-01
  -8.900847711702913E-01  -9.310429569757227E-01  -9.687266281625301E-01
  -1.002854389741294E+00  -1.033147339527639E+00  -1.059330991518303E+00
  -1.081137352777997E+00  -1.098307153122517E+00  -1.110592225184618E+00
  -1.117758030522197E+00  -1.119586325262240E+00  -1.115877956359203E+00
  -1.106455776875848E+00  -1.091167665763798E+00  -1.069889634429448E+00
  -1.042528998921971E+00  -1.009027592882731E+00  -9.693649924640906E-01
  -9.235617202821467E-01  -8.716823911417660E-01  -8.138387578021509E-01
  -7.501926104855630E-01  -6.809584792305914E-01  -6.064060836264130E-01
  -5.268624700210982E-01  -4.427137720745088E-01  -3.544065266390919E-01
  -2.624484735298481E-01  -1.674087649338931E-01  -6.991750817235924E-02
   2.933543555934332E-02   1.296024737899583E-01   2.300812026196809E-01
   3.299182967518381E-01   4.282144378754814E-01   5.240303427705761E-01
   6.163939434549424E-01   7.043087601556614E-01   7.867634936536674E-01
   8.627428464260639E-01   9.312395618343623E-01   9.912676472582175E-01
   1.041876720487541E+00   1.082167388863551E+00   1.111307537687194E+00
   1.128549368476732E+00   1.133246989056962E+00   1.124874316636069E+00
   1.103043012559038E+00   1.067520124072971E+00   1.018245065135803E+00
   9.553455261769969E-01   8.791518631115314E-01   7.902094803591561E-01
   6.892886928769784E-01   5.773915302175416E-01   4.557549334943723E-01
   3.258497961335970E-01   1.893753137782202E-01   4.824814009742252E-02
  -9.541410412113993E-02  -2.393153490814308E-01  -3.810099060986618E-01
  -5.179377738023317E-01  -6.474664374376771E-01  -7.669390045878105E-01
  -8.737283206746168E-01  -9.652964828621200E-01  -1.039258924199773E+00
  -1.093451975068790E+00  -1.126007811276202E+00  -1.135436013039101E+00
  -1.120669371726942E+00  -1.081103917219725E+00  -1.016703113977794E+00
  -9.280279623035232E-01  -8.162813804260174E-01  -6.833323065748270E-01
  -5.317236146051074E-01  -3.646604619310324E-01  -1.859767857117229E-01
  -7.806900648970655E-05   1.881409267945582E-01   3.734040225579782E-01
   5.501867301935839E-01   7.128732080856768E-01   8.559344695925620E-01
   9.741239523178415E-01   1.062685190794714E+00   1.117564957078900E+00
   1.135623908741130E+00   1.114835590547615E+00   1.054463664318820E+00
   9.552065890069465E-01   8.192987423580339E-01   6.505572683158295E-01
   4.543648449171985E-01   2.375801748497907E-01   8.370359703198445E-03
  -2.240375504845691E-01  -4.496846628089166E-01  -6.582822859864894E-01
  -8.396771239409625E-01  -9.843634391068160E-01  -1.084020583340602E+00
  -1.132049190914649E+00  -1.124074957679121E+00  -1.058385752286215E+00
  -9.362662999841352E-01  -7.621953162633471E-01  -5.438731635875728E-01
  -2.920541759191393E-01  -2.016690515556497E-02   2.562823553518034E-01
   5.205126286569001E-01   7.554508884747212E-01   9.448492597142356E-01
   1.074473891605207E+00   1.133286407471817E+00   1.114526099926792E+00
   1.016593669318341E+00   8.436371462408156E-01   6.057492965015243E-01
   3.187043976752968E-01   3.191188120358357E-03  -3.164625603429148E-01
  -6.140317575495476E-01  -8.635083266513011E-01  -1.041442287515527E+00
  -1.129316396497537E+00  -1.115724952260758E+00  -9.981088462994125E-01
  -7.838041157329587E-01  -4.901948129705746E-01  -1.438252532645332E-01
   2.215793594915923E-01   5.681163760802999E-01   8.575320890139732E-01
   1.055535354219256E+00   1.136144792811038E+00   1.085534339611056E+00
   9.048161474811963E-01   6.112460781307040E-01   2.374646596006614E-01
  -1.714051460713851E-01  -5.627061190145480E-01  -8.828277981676252E-01
  -1.084692329579350E+00  -1.135154238978429E+00  -1.021167423505766E+00
  -7.535743688474137E-01  -3.675670247613907E-01   8.073490217110676E-02
   5.215701322585070E-01   8.819857303759231E-01   1.098060797808255E+00
   1.126949472373428E+00   9.564883770863088E-01   6.101976311492290E-01
   1.460425664382763E-01  -3.516951594661135E-01  -7.867742985559532E-01
  -1.069483445134248E+00  -1.135913254700425E+00  -9.639139094095268E-01
  -5.816911131733706E-01  -6.601214893640009E-02   4.710522922966881E-01
   9.053151882879144E-01   1.129313459607367E+00   1.080348480106706E+00
   7.603759929754567E-01   2.413153403617962E-01  -3.477591709771191E-01
  -8.506047365803709E-01  -1.124937211752173E+00  -1.084347296637757E+00
  -7.286376471467068E-01  -1.516580391388742E-01   4.790564125013042E-01
   9.684007550628326E-01   1.154178142117884E+00   9.637174850810245E-01
   4.466083012526755E-01  -2.314309988086329E-01  -8.369700756066467E-01
  -1.147812525642227E+00  -1.037026330601113E+00  -5.302249194115558E-01
   1.905364826475019E-01   8.456096686567498E-01   1.163980380462237E+00
   9.984562051237028E-01   4.007631650952293E-01  -3.829647053074184E-01
  -1.005931538354344E+00  -1.172736003251296E+00  -7.851166143062783E-01
  -8.537130285352605E-03   7.858087512251085E-01   1.192103095175521E+00
   9.802332220545376E-01   2.368593362779000E-01  -6.518380684749261E-01
  -1.189885782751575E+00  -1.048991450107663E+00  -2.808191098627085E-01
   6.764620846117384E-01   1.233451807815731E+00   1.012569205000077E+00
   1.187628072815148E-01  -8.805148587705794E-01  -1.298928659462854E+00
  -8.060473973908926E-01   2.923344204281716E-01   1.210995584562534E+00
   1.232521688134550E+00   2.802915483310205E-01  -9.419775524925833E-01
  -1.436988907931339E+00  -7.257325327155265E-01   6.650944694053722E-01
   1.538767287805328E+00   1.037717769759143E+00  -4.938304727616333E-01
  -1.661029228376935E+00  -1.246335791504350E+00   5.084968816443513E-01
   1.902074621416007E+00   1.353848939224560E+00  -8.055953611826415E-01
  -2.322732841990292E+00  -1.268479486580933E+00   1.541537584161812E+00
   2.898412979374808E+00   7.084266611183366E-01  -2.930705441862199E+00
  -3.357644593255608E+00   9.314537285070097E-01   5.076771102782309E+00
   2.793442326426269E+00  -4.626713250735358E+00  -7.318137757144687E+00
    </PP_PSWFC.2>
    <PP_PSWFC.3 size="1095" index="3" label="2P" l="1">
   2.983229618567653E-08   3.058750434807430E-08   3.136183069555699E-08
   3.215575920725509E-08   3.296978611428779E-08   3.380442020992315E-08
   3.466018316759051E-08   3.553760986694324E-08   3.643724872817571E-08
   3.735966205480387E-08   3.830542638512279E-08   3.927513285256187E-08
   4.026938755516230E-08   4.128881193440783E-08   4.233404316364604E-08
   4.340573454634180E-08   4.450455592441325E-08   4.563119409690461E-08
   4.678635324925753E-08   4.797075539345018E-08   4.918514081927734E-08
   5.043026855705575E-08   5.170691685204247E-08   5.301588365086310E-08
   5.435798710025444E-08   5.573406605843196E-08   5.714498061940367E-08
   5.859161265055627E-08   6.007486634385061E-08   6.159566878097109E-08
   6.315497051278096E-08   6.475374615344741E-08   6.639299498960677E-08
   6.807374160495053E-08   6.979703652062337E-08   7.156395685183215E-08
   7.337560698107760E-08   7.523311924842892E-08   7.713765465927219E-08
   7.909040360997678E-08   8.109258663193005E-08   8.314545515440924E-08
   8.525029228676462E-08   8.740841362040360E-08   8.962116805107818E-08
   9.188993862198677E-08   9.421614338822104E-08   9.660123630309543E-08
   9.904670812691412E-08   1.015540873587444E-07   1.041249411917765E-07
   1.067608764928693E-07   1.094635408068938E-07   1.122346233865003E-07
   1.150758562479560E-07   1.179890152537090E-07   1.209759212223594E-07
   1.240384410667286E-07   1.271784889607385E-07   1.303980275358321E-07
   1.336990691076786E-07   1.370836769339352E-07   1.405539665038487E-07
   1.441121068605019E-07   1.477603219565358E-07   1.515008920441882E-07
   1.553361551005244E-07   1.592685082887459E-07   1.633004094564929E-07
   1.674343786720769E-07   1.716729997996016E-07   1.760189221139595E-07
   1.804748619567115E-07   1.850436044338852E-07   1.897280051567549E-07
   1.945309920266854E-07   1.994555670651630E-07   2.045048082901524E-07
   2.096818716399539E-07   2.149899929457633E-07   2.204324899541655E-07
   2.260127644008307E-07   2.317343041367037E-07   2.376006853080183E-07
   2.436155745915015E-07   2.497827314861562E-07   2.561060106630666E-07
   2.625893643746851E-07   2.692368449251115E-07   2.760526072029091E-07
   2.830409112780347E-07   2.902061250645143E-07   2.975527270505228E-07
   3.050853090975745E-07   3.128085793105788E-07   3.207273649805456E-07
   3.288466156017909E-07   3.371714059655197E-07   3.457069393317235E-07
   3.544585506813772E-07   3.634317100509589E-07   3.726320259513896E-07
   3.820652488735201E-07   3.917372748823588E-07   4.016541493022914E-07
   4.118220704955842E-07   4.222473937365475E-07   4.329366351837693E-07
   4.438964759529072E-07   4.551337662925845E-07   4.666555298659934E-07
   4.784689681408927E-07   4.905814648907356E-07   5.030005908097422E-07
   5.157341082448068E-07   5.287899760471854E-07   5.421763545470093E-07
   5.559016106537277E-07   5.699743230856641E-07   5.844032877319642E-07
   5.991975231502725E-07   6.143662762035912E-07   6.299190278398281E-07
   6.458654990176578E-07   6.622156567823967E-07   6.789797204956789E-07
   6.961681682228467E-07   7.137917432820300E-07   7.318614609590160E-07
   7.503886153921114E-07   7.693847866312787E-07   7.888618478759889E-07
   8.088319728962912E-07   8.293076436417458E-07   8.503016580429831E-07
   8.718271380107437E-07   8.938975376374237E-07   9.165266516062393E-07
   9.397286238132607E-07   9.635179562077243E-07   9.879095178561144E-07
   1.012918554235721E-06   1.038560696763448E-06   1.064851972565847E-06
   1.091808814496478E-06   1.119448071406848E-06   1.147787018677361E-06
   1.176843369014864E-06   1.206635283523506E-06   1.237181383055891E-06
   1.268500759851531E-06   1.300612989469968E-06   1.333538143025953E-06
   1.367296799734358E-06   1.401910059772672E-06   1.437399557469077E-06
   1.473787474824408E-06   1.511096555376388E-06   1.549350118414844E-06
   1.588572073556784E-06   1.628786935690403E-06   1.670019840297423E-06
   1.712296559163295E-06   1.755643516485090E-06   1.800087805387185E-06
   1.845657204854966E-06   1.892380197097297E-06   1.940285985348413E-06
   1.989404512120515E-06   2.039766477918415E-06   2.091403360427879E-06
   2.144347434189803E-06   2.198631790772329E-06   2.254290359453662E-06
   2.311357928428463E-06   2.369870166551001E-06   2.429863645628822E-06
   2.491375863280655E-06   2.554445266373014E-06   2.619111275050084E-06
   2.685414307371825E-06   2.753395804575892E-06   2.823098256978913E-06
   2.894565230533510E-06   2.967841394057584E-06   3.042972547152807E-06
   3.120005648829973E-06   3.198988846858832E-06   3.279971507860973E-06
   3.363004248164473E-06   3.448138965439497E-06   3.535428871134889E-06
   3.624928523735680E-06   3.716693862862577E-06   3.810782244234637E-06
   3.907252475516867E-06   4.006164853075434E-06   4.107581199663114E-06
   4.211564903058779E-06   4.318180955685029E-06   4.427495995228527E-06
   4.539578346288789E-06   4.654498063081055E-06   4.772326973220228E-06
   4.893138722613133E-06   5.017008821487011E-06   5.144014691583372E-06
   5.274235714546252E-06   5.407753281535457E-06   5.544650844095684E-06
   5.685013966313139E-06   5.828930378292644E-06   5.976490030988170E-06
   6.127785152421414E-06   6.282910305323457E-06   6.441962446235312E-06
   6.605040986104752E-06   6.772247852416713E-06   6.943687552896564E-06
   7.119467240825855E-06   7.299696782011196E-06   7.484488823448587E-06
   7.673958863725468E-06   7.868225325205026E-06   8.067409628037627E-06
   8.271636266045421E-06   8.481032884528107E-06   8.695730360037759E-06
   8.915862882173086E-06   9.141568037444108E-06   9.372986895259295E-06
   9.610264096089633E-06   9.853547941863813E-06   1.010299048865171E-05
   1.035874764169381E-05   1.062097925283572E-05   1.088984922042920E-05
   1.116552559176150E-05   1.144818066807740E-05   1.173799111225955E-05
   1.203513805923393E-05   1.233980722917029E-05   1.265218904354720E-05
   1.297247874415507E-05   1.330087651511115E-05   1.363758760796256E-05
   1.398282246995594E-05   1.433679687555337E-05   1.469973206127702E-05
   1.507185486396676E-05   1.545339786253674E-05   1.584459952332006E-05
   1.624570434909173E-05   1.665696303186339E-05   1.707863260954509E-05
   1.751097662657189E-05   1.795426529859594E-05   1.840877568134620E-05
   1.887479184376219E-05   1.935260504550916E-05   1.984251391898580E-05
   2.034482465593820E-05   2.085985119879654E-05   2.138791543685395E-05
   2.192934740741027E-05   2.248448550200576E-05   2.305367667787446E-05
   2.363727667474805E-05   2.423565023714679E-05   2.484917134229546E-05
   2.547822343380686E-05   2.612319966127910E-05   2.678450312595560E-05
   2.746254713260183E-05   2.815775544775574E-05   2.887056256451281E-05
   2.960141397401184E-05   3.035076644378980E-05   3.111908830318062E-05
   3.190685973593538E-05   3.271457308024656E-05   3.354273313636413E-05
   3.439185748199470E-05   3.526247679568134E-05   3.615513518836541E-05
   3.707039054333719E-05   3.800881486478827E-05   3.897099463518190E-05
   3.995753118166559E-05   4.096904105175385E-05   4.200615639851534E-05
   4.306952537550557E-05   4.415981254169037E-05   4.527769927661394E-05
   4.642388420606962E-05   4.759908363853904E-05   4.880403201267241E-05
   5.003948235608818E-05   5.130620675577907E-05   5.260499684041738E-05
   5.393666427486010E-05   5.530204126716308E-05   5.670198108841922E-05
   5.813735860574582E-05   5.960907082875300E-05   6.111803746983334E-05
   6.266520151862331E-05   6.425152983099294E-05   6.587801373293231E-05
   6.754566963971045E-05   6.925553969069236E-05   7.100869240021069E-05
   7.280622332489625E-05   7.464925574788448E-05   7.653894138032355E-05
   7.847646108062051E-05   8.046302559187524E-05   8.249987629795905E-05
   8.458828599871134E-05   8.672955970473551E-05   8.892503545228902E-05
   9.117608513877607E-05   9.348411537936187E-05   9.585056838524235E-05
   9.827692286411592E-05   1.007646949434182E-04   1.033154391168922E-04
   1.059307492150862E-04   1.086122594003803E-04   1.113616451871620E-04
   1.141806244877862E-04   1.170709586849663E-04   1.200344537312694E-04
   1.230729612763935E-04   1.261883798229310E-04   1.293826559113365E-04
   1.326577853348323E-04   1.360158143850121E-04   1.394588411289119E-04
   1.429890167183440E-04   1.466085467323080E-04   1.503196925533081E-04
   1.541247727784384E-04   1.580261646661064E-04   1.620263056192948E-04
   1.661276947062844E-04   1.703328942197761E-04   1.746445312753853E-04
   1.790652994504981E-04   1.835979604645031E-04   1.882453459014465E-04
   1.930103589761702E-04   1.978959763450362E-04   2.029052499623542E-04
   2.080413089836624E-04   2.133073617170449E-04   2.187066976236865E-04
   2.242426893689116E-04   2.299187949249715E-04   2.357385597268826E-04
   2.417056188826511E-04   2.478236994392454E-04   2.540966227057271E-04
   2.605283066349661E-04   2.671227682654189E-04   2.738841262244772E-04
   2.808166032949278E-04   2.879245290461172E-04   2.952123425314372E-04
   3.026845950538005E-04   3.103459530008248E-04   3.182012007513791E-04
   3.262552436555372E-04   3.345131110894433E-04   3.429799595871124E-04
   3.516610760513081E-04   3.605618810450145E-04   3.696879321661016E-04
   3.790449275065265E-04   3.886387091990934E-04   3.984752670531263E-04
   4.085607422817724E-04   4.189014313230676E-04   4.295037897571705E-04
   4.403744363221239E-04   4.515201570304892E-04   4.629479093896354E-04
   4.746648267281857E-04   4.866782226309549E-04   4.989955954856085E-04
   5.116246331434446E-04   5.245732176973141E-04   5.378494303795608E-04
   5.514615565827476E-04   5.654180910068596E-04   5.797277429353991E-04
   5.943994416439517E-04   6.094423419444278E-04   6.248658298685054E-04
   6.406795284937012E-04   6.568933039151077E-04   6.735172713671847E-04
   6.905618014989409E-04   7.080375268062348E-04   7.259553482252716E-04
   7.443264418911255E-04   7.631622660655012E-04   7.824745682379795E-04
   8.022753924047347E-04   8.225770865294783E-04   8.433923101908315E-04
   8.647340424210489E-04   8.866155897404548E-04   9.090505943924881E-04
   9.320530427848048E-04   9.556372741404890E-04   9.798179893657348E-04
   1.004610260138425E-03   1.030029538223267E-03   1.056091665019325E-03
   1.082812881345315E-03   1.110209837468605E-03   1.138299603383919E-03
   1.167099679347885E-03   1.196628006675301E-03   1.226902978804324E-03
   1.257943452636160E-03   1.289768760156604E-03   1.322398720346217E-03
   1.355853651385524E-03   1.390154383163800E-03   1.425322270097187E-03
   1.461379204264355E-03   1.498347628867772E-03   1.536250552027915E-03
   1.575111560918555E-03   1.614954836251637E-03   1.655805167119375E-03
   1.697687966203761E-03   1.740629285359486E-03   1.784655831583670E-03
   1.829794983375898E-03   1.876074807503210E-03   1.923524076176972E-03
   1.972172284651920E-03   2.022049669256178E-03   2.073187225866023E-03
   2.125616728831962E-03   2.179370750369560E-03   2.234482680423997E-03
   2.290986747021156E-03   2.348918037115494E-03   2.408312517947793E-03
   2.469207058922454E-03   2.531639454019081E-03   2.595648444748864E-03
   2.661273743669266E-03   2.728556058470029E-03   2.797537116643486E-03
   2.868259690752520E-03   2.940767624310736E-03   3.015105858287851E-03
   3.091320458254627E-03   3.169458642184689E-03   3.249568808922410E-03
   3.331700567338839E-03   3.415904766186558E-03   3.502233524669809E-03
   3.590740263748972E-03   3.681479738191125E-03   3.774508069388727E-03
   3.869882778957638E-03   3.967662823137785E-03   4.067908628008746E-03
   4.170682125542438E-03   4.276046790508518E-03   4.384067678252098E-03
   4.494811463362785E-03   4.608346479254549E-03   4.724742758674585E-03
   4.844072075162667E-03   4.966407985480318E-03   5.091825873031116E-03
   5.220402992291390E-03   5.352218514274282E-03   5.487353573047518E-03
   5.625891313326826E-03   5.767916939167174E-03   5.913517763774744E-03
   6.062783260461180E-03   6.215805114762820E-03   6.372677277751213E-03
   6.533496020554148E-03   6.698359990112930E-03   6.867370266201527E-03
   7.040630419728387E-03   7.218246572347713E-03   7.400327457405778E-03
   7.586984482243040E-03   7.778331791882311E-03   7.974486334124477E-03
   8.175567926079125E-03   8.381699322153586E-03   8.593006283528885E-03
   8.809617649146381E-03   9.031665408229778E-03   9.259284774371389E-03
   9.492614261206400E-03   9.731795759699638E-03   9.976974617075005E-03
   1.022829971740662E-02   1.048592356390430E-02   1.075000236291170E-02
   1.102069610964776E-02   1.129816867571197E-02   1.158258789838178E-02
   1.187412567172063E-02   1.217295803952692E-02   1.247926529014124E-02
   1.279323205313685E-02   1.311504739791484E-02   1.344490493422595E-02
   1.378300291463551E-02   1.412954433895718E-02   1.448473706066736E-02
   1.484879389532110E-02   1.522193273098618E-02   1.560437664070674E-02
   1.599635399701345E-02   1.639809858849007E-02   1.680984973840628E-02
   1.723185242542770E-02   1.766435740640625E-02   1.810762134125748E-02
   1.856190691992620E-02   1.902748299144091E-02   1.950462469505215E-02
   1.999361359345266E-02   2.049473780806704E-02   2.100829215640114E-02
   2.153457829143736E-02   2.207390484305181E-02   2.262658756143860E-02
   2.319294946250715E-02   2.377332097522500E-02   2.436804009087115E-02
   2.497745251415577E-02   2.560191181616338E-02   2.624177958906567E-02
   2.689742560254820E-02   2.756922796188542E-02   2.825757326759427E-02
   2.896285677658806E-02   2.968548256474710E-02   3.042586369081025E-02
   3.118442236148835E-02   3.196159009768775E-02   3.275780790172536E-02
   3.357352642540421E-02   3.440920613880998E-02   3.526531749967983E-02
   3.614234112317637E-02   3.704076795189581E-02   3.796109942592063E-02
   3.890384765271783E-02   3.986953557666202E-02   4.085869714796056E-02
   4.187187749072718E-02   4.290963306994582E-02   4.397253185704357E-02
   4.506115349377125E-02   4.617608945407931E-02   4.731794320364587E-02
   4.848733035670212E-02   4.968487882977132E-02   5.091122899191763E-02
   5.216703381107823E-02   5.345295899602287E-02   5.476968313346037E-02
   5.611789781978542E-02   5.749830778692709E-02   5.891163102173183E-02
   6.035859887828181E-02   6.183995618251631E-02   6.335646132848843E-02
   6.490888636555683E-02   6.649801707576777E-02   6.812465304065361E-02
   6.978960769662310E-02   7.149370837808444E-02   7.323779634739307E-02
   7.502272681067396E-02   7.684936891851737E-02   7.871860575050242E-02
   8.063133428244618E-02   8.258846533522807E-02   8.459092350398295E-02
   8.663964706639682E-02   8.873558786878671E-02   9.087971118857999E-02
   9.307299557174831E-02   9.531643264368908E-02   9.761102689197602E-02
   9.995779541933821E-02   1.023577676651526E-01   1.048119850936650E-01
   1.073215008470804E-01   1.098873793615864E-01   1.125106959443022E-01
   1.151925363090561E-01   1.179339960688258E-01   1.207361801825876E-01
   1.236002023542333E-01   1.265271843811430E-01   1.295182554499012E-01
   1.325745513765683E-01   1.356972137888275E-01   1.388873892472425E-01
   1.421462283027741E-01   1.454748844876156E-01   1.488745132363226E-01
   1.523462707341270E-01   1.558913126892389E-01   1.595107930258600E-01
   1.632058624945558E-01   1.669776671965467E-01   1.708273470184185E-01
   1.747560339736673E-01   1.787648504474467E-01   1.828549073408129E-01
   1.870273021107135E-01   1.912831167019292E-01   1.956234153671250E-01
   2.000492423711578E-01   2.045616195757551E-01   2.091615439006848E-01
   2.138499846575397E-01   2.186278807522782E-01   2.234961377527157E-01
   2.284556248171993E-01   2.335071714807868E-01   2.386515642953441E-01
   2.438895433200892E-01   2.492217984592744E-01   2.546489656438434E-01
   2.601716228541275E-01   2.657902859808765E-01   2.715054045221665E-01
   2.773173571140786E-01   2.832264468933424E-01   2.892328966905666E-01
   2.953368440531117E-01   3.015383360971222E-01   3.078373241888281E-01
   3.142336584557753E-01   3.207270821293366E-01   3.273172257205849E-01
   3.340036010323649E-01   3.407855950113327E-01   3.476624634446045E-01
   3.546333245067366E-01   3.616971521638495E-01   3.688527694428890E-01
   3.760988415753573E-01   3.834338690261805E-01   3.908561804199186E-01
   3.983639253781063E-01   4.059550672831957E-01   4.136273759864465E-01
   4.213784204789816E-01   4.292055615473275E-01   4.371059444369225E-01
   4.450764915493488E-01   4.531138952015126E-01   4.612146104774905E-01
   4.693748482064662E-01   4.775905681029701E-01   4.858574721085024E-01
   4.941709979767165E-01   5.025263131473978E-01   5.109183089577576E-01
   5.193415952428863E-01   5.277904953805784E-01   5.362590418392872E-01
   5.447409722914250E-01   5.532297263578347E-01   5.617184430528214E-01
   5.701999590026570E-01   5.786668075140393E-01   5.871112185723560E-01
   5.955251198529720E-01   6.039001388318977E-01   6.122276060851317E-01
   6.204985598687056E-01   6.287037520737875E-01   6.368336556532219E-01
   6.448784736174293E-01   6.528281496985494E-01   6.606723807821616E-01
   6.684006312055341E-01   6.760021490202525E-01   6.834659843150291E-01
   6.907810096913612E-01   6.979359429805189E-01   7.049193722847469E-01
   7.117197834186199E-01   7.183255898179521E-01   7.247251649733346E-01
   7.309068774332561E-01   7.368591284074755E-01   7.425703919848863E-01
   7.480292579612426E-01   7.532244772506501E-01   7.581450098305780E-01
   7.627800751429854E-01   7.671192048439925E-01   7.711522977610746E-01
   7.748696768799126E-01   7.782621481427222E-01   7.813210607959076E-01
   7.840383689772464E-01   7.864066941814435E-01   7.884193881877513E-01
   7.900705959745841E-01   7.913553180836356E-01   7.922694718302314E-01
   7.928099506876717E-01   7.929746811015197E-01   7.927626759155959E-01
   7.921740835153862E-01   7.912102317173240E-01   7.898736653547990E-01
   7.881681764346972E-01   7.860988256629430E-01   7.836719540651909E-01
   7.808951833610014E-01   7.777774036882272E-01   7.743287472209097E-01
   7.705605461808180E-01   7.664852737123586E-01   7.621164660754991E-01
   7.574686246145295E-01   7.525570959851078E-01   7.473979291713866E-01
   7.420077079028689E-01   7.364033571906786E-01   7.306019228492651E-01
   7.246203230563452E-01   7.184750712352733E-01   7.121819698245009E-01
   7.057557748323471E-01   6.992098314662528E-01   6.925556815778025E-01
   6.858026441814955E-01   6.789573708896401E-01   6.720233787598835E-01
   6.650005637772824E-01   6.578865776570948E-01   6.506836096626509E-01
   6.433953686257764E-01   6.360255902537906E-01   6.285780341799643E-01
   6.210564810633523E-01   6.134647297375592E-01   6.058065944093252E-01
   5.980859019074468E-01   5.903064889821696E-01   5.824721996548697E-01
   5.745868826175138E-01   5.666543886810811E-01   5.586785682718430E-01
   5.506632689741429E-01   5.426123331180791E-01   5.345295954102876E-01
   5.264188806058351E-01   5.182840012190787E-01   5.101287552712191E-01
   5.019569240721746E-01   4.937722700343314E-01   4.855785345156863E-01
   4.773794356898778E-01   4.691786664406245E-01   4.609798922781264E-01
   4.527867492750574E-01   4.446028420198759E-01   4.364317415853024E-01
   4.282769835099617E-01   4.201420657913595E-01   4.120304468885574E-01
   4.039455437331286E-01   3.958907297472065E-01   3.878693328676979E-01
   3.798846335759949E-01   3.719398629328099E-01   3.640382006180450E-01
   3.561827729759220E-01   3.483766510659051E-01   3.406228487202718E-01
   3.329243206095113E-01   3.252839603170531E-01   3.177045984251538E-01
   3.101890006140915E-01   3.027398657771357E-01   2.953598241540658E-01
   2.880514354863182E-01   2.808171871971238E-01   2.736594926002771E-01
   2.665806891414388E-01   2.595830366761138E-01   2.526687157886695E-01
   2.458398261569660E-01   2.390983849673455E-01   2.324463253848851E-01
   2.258854950839506E-01   2.194176548441890E-01   2.130444772171763E-01
   2.067675452689831E-01   2.005883514039398E-01   1.945082962748686E-01
   1.885286877850088E-01   1.826507401867870E-01   1.768755732824754E-01
   1.712042117316495E-01   1.656375844701836E-01   1.601765242453264E-01
   1.548217672711693E-01   1.495739530085587E-01   1.444336240732201E-01
   1.394012262755407E-01   1.344771087951193E-01   1.296615244928226E-01
   1.249546303626944E-01   1.203564881256528E-01   1.158670649664747E-01
   1.114862344151144E-01   1.072137773729354E-01   1.030493832839489E-01
   9.899265145066079E-02   9.504309249362111E-02   9.120012995326177E-02
   8.746310203208964E-02   8.383126347478750E-02   8.030378758325678E-02
   7.687976836312491E-02   7.355822279773341E-02   7.033809324512631E-02
   6.721824995307368E-02   6.419749368669558E-02   6.127455846279895E-02
   5.844811438460812E-02   5.571677057015965E-02   5.307907816724820E-02
   5.053353344745234E-02   4.807858097144286E-02   4.571261681747900E-02
   4.343399186473677E-02   4.124101512288617E-02   3.913195709914339E-02
   3.710505319387231E-02   3.515850711569597E-02   3.329049430700547E-02
   3.149916537072081E-02   2.978264948916646E-02   2.813905782597324E-02
   2.656648690200811E-02   2.506302193646364E-02   2.362674014440930E-02
   2.225571398231548E-02   2.094801433330789E-02   1.970171362419328E-02
   1.851488886661503E-02   1.738562461504797E-02   1.631201583472354E-02
   1.529217067298631E-02   1.432421312801955E-02   1.340628560933770E-02
   1.253655138492428E-02   1.171319691039347E-02   1.093443403606750E-02
   1.019850208838879E-02   9.503669822621692E-03   8.848237244340059E-03
   8.230537297742181E-03   7.648937419379036E-03   7.101840956423533E-03
   6.587688449144002E-03   6.104958777771627E-03   5.652170174466411E-03
   5.227881101586517E-03   4.830690997949238E-03   4.459240895235846E-03
   4.112213907135026E-03   3.788335594238519E-03   3.486374208096050E-03
   3.205140818203061E-03   2.943489326032837E-03   2.700316370532923E-03
   2.474561129783559E-03   2.265205023762212E-03   2.071271323372831E-03
   1.891824671080710E-03   1.725970518643828E-03   1.572854487549309E-03
   1.431661657849504E-03   1.301615791146644E-03   1.181978493498718E-03
   1.072048324013466E-03   9.711598548589916E-04   8.786826883725256E-04
   7.940204368100483E-04   7.166096702541150E-04   6.459188379875489E-04
   5.814471684489077E-04   5.227235528291786E-04   4.693054170575831E-04
   4.207775867367994E-04   3.767511493627861E-04   3.368623176412444E-04
   3.007713114545539E-04   2.681610923293258E-04   2.387372188838807E-04
   2.122232138331219E-04   1.883673373506742E-04   1.669367028702475E-04
   1.477125945561503E-04   1.304919659919107E-04   1.150874807099915E-04
   1.013265314815819E-04   8.905029136868730E-05   7.811279649937081E-05
   6.838006025220559E-05   5.972921816269434E-05   5.204770247967430E-05
   4.523244485072842E-05   3.918910511305028E-05   3.383132370223760E-05
   2.907999416467021E-05   2.486254817419288E-05   2.111231017885757E-05
   1.776746792437884E-05   1.478208117954720E-05   1.204822233392283E-05
   0.000000000000000E+00   0.000000000000000E+00   0.000000000000000E+00
   0.000000000000000E+00   0.000000000000000E+00   0.000000000000000E+00
   0.000000000000000E+00   0.000000000000000E+00   0.000000000000000E+00
   0.000000000000000E+00   0.000000000000000E+00   0.000000000000000E+00
   0.000000000000000E+00   0.000000000000000E+00   0.000000000000000E+00
   0.000000000000000E+00   0.000000000000000E+00   0.000000000000000E+00
   0.000000000000000E+00   0.000000000000000E+00   0.000000000000000E+00
   0.000000000000000E+00   0.000000000000000E+00   0.000000000000000E+00
   0.000000000000000E+00   0.000000000000000E+00   0.000000000000000E+00
   0.000000000000000E+00   0.000000000000000E+00   0.000000000000000E+00
   0.000000000000000E+00   0.000000000000000E+00   0.000000000000000E+00
   0.000000000000000E+00   0.000000000000000E+00   0.000000000000000E+00
   0.000000000000000E+00   0.000000000000000E+00   0.000000000000000E+00
   0.000000000000000E+00   0.000000000000000E+00   0.000000000000000E+00
   0.000000000000000E+00   0.000000000000000E+00   0.000000000000000E+00
   0.000000000000000E+00   0.000000000000000E+00   0.000000000000000E+00
   0.000000000000000E+00   0.000000000000000E+00   0.000000000000000E+00
   0.000000000000000E+00   0.000000000000000E+00   0.000000000000000E+00
   0.000000000000000E+00   0.000000000000000E+00   0.000000000000000E+00
   0.000000000000000E+00   0.000000000000000E+00   0.000000000000000E+00
   0.000000000000000E+00   0.000000000000000E+00   0.000000000000000E+00
   0.000000000000000E+00   0.000000000000000E+00   0.000000000000000E+00
   0.000000000000000E+00   0.000000000000000E+00   0.000000000000000E+00
   0.000000000000000E+00   0.000000000000000E+00   0.000000000000000E+00
   0.000000000000000E+00   0.000000000000000E+00   0.000000000000000E+00
   0.000000000000000E+00   0.000000000000000E+00   0.000000000000000E+00
   0.000000000000000E+00   0.000000000000000E+00   0.000000000000000E+00
   0.000000000000000E+00   0.000000000000000E+00   0.000000000000000E+00
   0.000000000000000E+00   0.000000000000000E+00   0.000000000000000E+00
   0.000000000000000E+00   0.000000000000000E+00   0.000000000000000E+00
   0.000000000000000E+00   0.000000000000000E+00   0.000000000000000E+00
   0.000000000000000E+00   0.000000000000000E+00   0.000000000000000E+00
   0.000000000000000E+00   0.000000000000000E+00   0.000000000000000E+00
   0.000000000000000E+00   0.000000000000000E+00   0.000000000000000E+00
   0.000000000000000E+00   0.000000000000000E+00   0.000000000000000E+00
   0.000000000000000E+00   0.000000000000000E+00   0.000000000000000E+00
   0.000000000000000E+00   0.000000000000000E+00   0.000000000000000E+00
   0.000000000000000E+00   0.000000000000000E+00   0.000000000000000E+00
   0.000000000000000E+00   0.000000000000000E+00   0.000000000000000E+00
   0.000000000000000E+00   0.000000000000000E+00   0.000000000000000E+00
   0.000000000000000E+00   0.000000000000000E+00   0.000000000000000E+00
   0.000000000000000E+00   0.000000000000000E+00   0.000000000000000E+00
   0.000000000000000E+00   0.000000000000000E+00   0.000000000000000E+00
   0.000000000000000E+00   0.000000000000000E+00   0.000000000000000E+00
   0.000000000000000E+00   0.000000000000000E+00   0.000000000000000E+00
   0.000000000000000E+00   0.000000000000000E+00   0.000000000000000E+00
   0.000000000000000E+00   0.000000000000000E+00   0.000000000000000E+00
   0.000000000000000E+00   0.000000000000000E+00   0.000000000000000E+00
   0.000000000000000E+00   0.000000000000000E+00   0.000000000000000E+00
   0.000000000000000E+00   0.000000000000000E+00   0.000000000000000E+00
   0.000000000000000E+00   0.000000000000000E+00   0.000000000000000E+00
    </PP_PSWFC.3>
    <PP_PSWFC.4 size="1095" index="4" label="2P" l="1">
   2.054463762699295E-08   2.106472759625612E-08   2.159798370534433E-08
   2.214473925665198E-08   2.270533599016273E-08   2.328012429704785E-08
   2.386946343867208E-08   2.447372177114364E-08   2.509327697554855E-08
   2.572851629401376E-08   2.637983677174569E-08   2.704764550519640E-08
   2.773235989651206E-08   2.843440791442260E-08   2.915422836173628E-08
   2.989227114960517E-08   3.064899757873440E-08   3.142488062770989E-08
   3.222040524862507E-08   3.303606867019191E-08   3.387238070852445E-08
   3.472986408579048E-08   3.560905475692969E-08   3.651050224464271E-08
   3.743476998286068E-08   3.838243566890913E-08   3.935409162458773E-08
   4.035034516639034E-08   4.137181898509717E-08   4.241915153497691E-08
   4.349299743284057E-08   4.459402786719843E-08   4.572293101777413E-08
   4.688041248563911E-08   4.806719573423609E-08   4.928402254156654E-08
   5.053165346382584E-08   5.181086831077527E-08   5.312246663314793E-08
   5.446726822239383E-08   5.584611362307522E-08   5.725986465823418E-08
   5.870940496805937E-08   6.019564056218928E-08   6.171950038599755E-08
   6.328193690121283E-08   6.488392668123804E-08   6.652647102153985E-08
   6.821059656548996E-08   6.993735594605043E-08   7.170782844370194E-08
   7.352312066102889E-08   7.538436721438104E-08   7.729273144304445E-08
   7.924940613636616E-08   8.125561427928431E-08   8.331260981673305E-08
   8.542167843739773E-08   8.758413837731066E-08   8.980134124379099E-08
   9.207467286024098E-08   9.440555413232991E-08   9.679544193610481E-08
   9.924583002858364E-08   1.017582499814010E-07   1.043342721380878E-07
   1.069755065955855E-07   1.096836042106076E-07   1.124602576314760E-07
   1.153072023560805E-07   1.182262178166177E-07   1.212191284917929E-07
   1.242878050471757E-07   1.274341655044240E-07   1.306601764401088E-07
   1.339678542148836E-07   1.373592662337736E-07   1.408365322383681E-07
   1.444018256317242E-07   1.480573748368118E-07   1.518054646893457E-07
   1.556484378658790E-07   1.595886963480488E-07   1.636287029238871E-07
   1.677709827271412E-07   1.720181248155577E-07   1.763727837891241E-07
   1.808376814492748E-07   1.854156085000997E-07   1.901094262926207E-07
   1.949220686132216E-07   1.998565435173543E-07   2.049159352096653E-07
   2.101034059717159E-07   2.154221981385058E-07   2.208756361250275E-07
   2.264671285041276E-07   2.322001701369670E-07   2.380783443574131E-07
   2.441053252117325E-07   2.502848797549771E-07   2.566208704055078E-07
   2.631172573591192E-07   2.697781010642796E-07   2.766075647600339E-07
   2.836099170781464E-07   2.907895347111244E-07   2.981509051477780E-07
   3.056986294780322E-07   3.134374252687438E-07   3.213721295123148E-07
   3.295077016499550E-07   3.378492266714760E-07   3.464019182935550E-07
   3.551711222184606E-07   3.641623194752654E-07   3.733811298456483E-07
   3.828333153764173E-07   3.925247839809508E-07   4.024615931318129E-07
   4.126499536468401E-07   4.230962335710788E-07   4.338069621569900E-07
   4.447888339454131E-07   4.560487129498414E-07   4.675936369466147E-07
   4.794308218737257E-07   4.915676663409763E-07   5.040117562543094E-07
   5.167708695572076E-07   5.298529810921109E-07   5.432662675849106E-07
   5.570191127556179E-07   5.711201125584099E-07   5.855780805543304E-07
   6.004020534199888E-07   6.156012965957216E-07   6.311853100767294E-07
   6.471638343508161E-07   6.635468564864454E-07   6.803446163749039E-07
   6.975676131304931E-07   7.152266116527354E-07   7.333326493547016E-07
   7.518970430616671E-07   7.709313960843940E-07   7.904476054714866E-07
   8.104578694453255E-07   8.309746950262451E-07   8.520109058497171E-07
   8.735796501814123E-07   8.956944091351724E-07   9.183690050990089E-07
   9.416176103744057E-07   9.654547560343246E-07   9.898953410054358E-07
   1.014954641380275E-06   1.040648319965124E-06   1.066992436069595E-06
   1.094003455544035E-06   1.121698261071010E-06   1.150094162717331E-06
   1.179208908753185E-06   1.209060696745143E-06   1.239668184930008E-06
   1.271050503876533E-06   1.303227268442413E-06   1.336218590033902E-06
   1.370045089175809E-06   1.404727908399690E-06   1.440288725458268E-06
   1.476749766874419E-06   1.514133821833084E-06   1.552464256424875E-06
   1.591765028250259E-06   1.632060701393374E-06   1.673376461774990E-06
   1.715738132894020E-06   1.759172191967574E-06   1.803705786479577E-06
   1.849366751148250E-06   1.896183625323198E-06   1.944185670822786E-06
   1.993402890223120E-06   2.043866045609982E-06   2.095606677805398E-06
   2.148657126081000E-06   2.203050548370312E-06   2.258820941992742E-06
   2.316003164902183E-06   2.374632957473425E-06   2.434746964840176E-06
   2.496382759798420E-06   2.559578866289628E-06   2.624374783478391E-06
   2.690811010439491E-06   2.758929071469995E-06   2.828771542041977E-06
   2.900382075412250E-06   2.973805429905703E-06   3.049087496889168E-06
   3.126275329453550E-06   3.205417171821849E-06   3.286562489501675E-06
   3.369762000201033E-06   3.455067705526575E-06   3.542532923484392E-06
   3.632212321803345E-06   3.724161952102004E-06   3.818439284920446E-06
   3.915103245638704E-06   4.014214251304596E-06   4.115834248393579E-06
   4.220026751524517E-06   4.326856883155450E-06   4.436391414284039E-06
   4.548698806178448E-06   4.663849253164324E-06   4.781914726494939E-06
   4.902969019331798E-06   5.027087792863653E-06   5.154348623593129E-06
   5.284831051820024E-06   5.418616631351982E-06   5.555788980473406E-06
   5.696433834204361E-06   5.840639097882483E-06   5.988494902100882E-06
   6.140093659036743E-06   6.295530120205723E-06   6.454901435677995E-06
   6.618307214793410E-06   6.785849588413164E-06   6.957633272747263E-06
   7.133765634797553E-06   7.314356759456973E-06   7.499519518307441E-06
   7.689369640158767E-06   7.884025783373105E-06   8.083609610019996E-06
   8.288245861908073E-06   8.498062438541492E-06   8.713190477049094E-06
   8.933764434136783E-06   9.159922170114069E-06   9.391805035047182E-06
   9.629557957092855E-06   9.873329533067594E-06   1.012327212130931E-05
   1.037954193688919E-05   1.064229914923318E-05   1.091170798221425E-05
   1.118793681677780E-05   1.147115829616435E-05   1.176154943379529E-05
   1.205929172388890E-05   1.236457125487598E-05   1.267757882568565E-05
   1.299851006497405E-05   1.332756555337058E-05   1.366495094881757E-05
   1.401087711508217E-05   1.436556025352025E-05   1.472922203817493E-05
   1.510208975429396E-05   1.548439644035224E-05   1.587638103366863E-05
   1.627828851970742E-05   1.669037008515808E-05   1.711288327488875E-05
   1.754609215287120E-05   1.799026746717825E-05   1.844568681915604E-05
   1.891263483687722E-05   1.939140335298323E-05   1.988229158702634E-05
   2.038560633242589E-05   2.090166214815477E-05   2.143078155527616E-05
   2.197329523845330E-05   2.252954225255747E-05   2.309987023450387E-05
   2.368463562044694E-05   2.428420386847107E-05   2.489894968691560E-05
   2.552925726847617E-05   2.617552053022924E-05   2.683814335972871E-05
   2.751753986732869E-05   2.821413464488993E-05   2.892836303103058E-05
   2.966067138308776E-05   3.041151735595849E-05   3.118137018799493E-05
   3.197071099413151E-05   3.278003306642692E-05   3.360984218220873E-05
   3.446065692001224E-05   3.533300898351103E-05   3.622744353364106E-05
   3.714451952912496E-05   3.808481007560974E-05   3.904890278363440E-05
   4.003740013565159E-05   4.105091986233162E-05   4.209009532838311E-05
   4.315557592813142E-05   4.424802749110062E-05   4.536813269785236E-05
   4.651659150634030E-05   4.769412158904583E-05   4.890145878116772E-05
   5.013935754014422E-05   5.140859141679455E-05   5.270995353837291E-05
   5.404425710383537E-05   5.541233589162923E-05   5.681504478031944E-05
   5.825326028237759E-05   5.972788109146527E-05   6.123982864355182E-05
   6.279004769221698E-05   6.437950689849521E-05   6.600919943562952E-05
   6.768014360911066E-05   6.939338349238812E-05   7.114998957864660E-05
   7.295105944905568E-05   7.479771845790665E-05   7.669112043506274E-05
   7.863244840616059E-05   8.062291533100823E-05   8.266376486064146E-05
   8.475627211350725E-05   8.690174447125644E-05   8.910152239464187E-05
   9.135698026002548E-05   9.366952721701793E-05   9.604060806778014E-05
   9.847170416853412E-05   1.009643343538433E-04   1.035200558842332E-04
   1.061404654177444E-04   1.088272000060181E-04   1.115819381155322E-04
   1.144064006746228E-04   1.173023521469379E-04   1.202716016319920E-04
   1.233160039935006E-04   1.264374610161955E-04   1.296379225918391E-04
   1.329193879351670E-04   1.362839068305187E-04   1.397335809099237E-04
   1.432705649634354E-04   1.468970682825244E-04   1.506153560373600E-04
   1.544277506888349E-04   1.583366334362044E-04   1.623444457012343E-04
   1.664536906497778E-04   1.706669347517157E-04   1.749868093802306E-04
   1.794160124513972E-04   1.839573101051024E-04   1.886135384283341E-04
   1.933876052218921E-04   1.982824918116445E-04   2.033012549053845E-04
   2.084470284964684E-04   2.137230258154742E-04   2.191325413308929E-04
   2.246789528003506E-04   2.303657233733297E-04   2.361964037469784E-04
   2.421746343760790E-04   2.483041477386278E-04   2.545887706586152E-04
   2.610324266869485E-04   2.676391385425752E-04   2.744130306148295E-04
   2.813583315287192E-04   2.884793767748557E-04   2.957806114053415E-04
   3.032665927974743E-04   3.109419934870231E-04   3.188116040725186E-04
   3.268803361926290E-04   3.351532255783143E-04   3.436354351815336E-04
   3.523322583826888E-04   3.612491222783649E-04   3.703915910518226E-04
   3.797653694277771E-04   3.893763062141727E-04   3.992303979324937E-04
   4.093337925393440E-04   4.196927932410659E-04   4.303138624042309E-04
   4.412036255639469E-04   4.523688755325282E-04   4.638165766112829E-04
   4.755538689074022E-04   4.875880727592998E-04   4.999266932722422E-04
   5.125774249678635E-04   5.255481565495480E-04   5.388469757872164E-04
   5.524821745240950E-04   5.664622538084709E-04   5.807959291537554E-04
   5.954921359297239E-04   6.105600348883958E-04   6.260090178277157E-04
   6.418487133964547E-04   6.580889930437141E-04   6.747399771171097E-04
   6.918120411120805E-04   7.093158220774620E-04   7.272622251802900E-04
   7.456624304334677E-04   7.645278995916250E-04   7.838703832168576E-04
   8.037019279220278E-04   8.240348837919159E-04   8.448819119897489E-04
   8.662559925518096E-04   8.881704323756152E-04   9.106388734058083E-04
   9.336753010226919E-04   9.572940526385439E-04   9.815098265064310E-04
   1.006337690746605E-03   1.031793092596234E-03   1.057891867887047E-03
   1.084650250757079E-03   1.112084883601966E-03   1.140212827270826E-03
   1.169051571513724E-03   1.198619045685706E-03   1.228933629714722E-03
   1.260014165337875E-03   1.291879967614034E-03   1.324550836719271E-03
   1.358047070030025E-03   1.392389474503289E-03   1.427599379359368E-03
   1.463698649073677E-03   1.500709696687150E-03   1.538655497440191E-03
   1.577559602739538E-03   1.617446154464540E-03   1.658339899621855E-03
   1.700266205355971E-03   1.743251074323694E-03   1.787321160441748E-03
   1.832503785015150E-03   1.878826953255848E-03   1.926319371200266E-03
   1.975010463034766E-03   2.024930388838816E-03   2.076110062754453E-03
   2.128581171592640E-03   2.182376193886025E-03   2.237528419397543E-03
   2.294071969096549E-03   2.352041815611300E-03   2.411473804169078E-03
   2.472404674035392E-03   2.534872080462247E-03   2.598914617156891E-03
   2.664571839283653E-03   2.731884287007786E-03   2.800893509596805E-03
   2.871642090087743E-03   2.944173670535107E-03   3.018532977850211E-03
   3.094765850245855E-03   3.172919264298080E-03   3.253041362638476E-03
   3.335181482290515E-03   3.419390183662308E-03   3.505719280210613E-03
   3.594221868788874E-03   3.684952360693625E-03   3.777966513423570E-03
   3.873321463165129E-03   3.971075758019643E-03   4.071289391986050E-03
   4.174023839714484E-03   4.279342092045686E-03   4.387308692351050E-03
   4.497989773688681E-03   4.611453096791358E-03   4.727768088900872E-03
   4.847005883465437E-03   4.969239360715758E-03   5.094543189133988E-03
   5.222993867834777E-03   5.354669769870934E-03   5.489651186481590E-03
   5.628020372299198E-03   5.769861591530076E-03   5.915261165125111E-03
   6.064307518958477E-03   6.217091233026561E-03   6.373705091687267E-03
   6.534244134952181E-03   6.698805710849669E-03   6.867489528872998E-03
   7.040397714529264E-03   7.217634865005318E-03   7.399308105964182E-03
   7.585527149487281E-03   7.776404353176973E-03   7.972054780433360E-03
   8.172596261918635E-03   8.378149458221906E-03   8.588837923738435E-03
   8.804788171773256E-03   9.026129740882259E-03   9.252995262461535E-03
   9.485520529592787E-03   9.723844567157549E-03   9.968109703225467E-03
   1.021846164172544E-02   1.047504953640599E-02   1.073802606608933E-02
   1.100754751122425E-02   1.128377383173918E-02   1.156686874619806E-02
   1.185699981225769E-02   1.215433850842574E-02   1.245906031711479E-02
   1.277134480898795E-02   1.309137572858793E-02   1.341934108124057E-02
   1.375543322122025E-02   1.409984894116397E-02   1.445278956271646E-02
   1.481446102838653E-02   1.518507399459340E-02   1.556484392587575E-02
   1.595399119023568E-02   1.635274115558465E-02   1.676132428725554E-02
   1.717997624653964E-02   1.760893799020553E-02   1.804845587095025E-02
   1.849878173872925E-02   1.896017304290669E-02   1.943289293516218E-02
   1.991721037308481E-02   2.041340022437863E-02   2.092174337159903E-02
   2.144252681733053E-02   2.197604378971229E-02   2.252259384820814E-02
   2.308248298951138E-02   2.365602375346619E-02   2.424353532887857E-02
   2.484534365908216E-02   2.546178154711089E-02   2.609318876032799E-02
   2.673991213434064E-02   2.740230567602638E-02   2.808073066548320E-02
   2.877555575670080E-02   2.948715707674185E-02   3.021591832320599E-02
   3.096223085973480E-02   3.172649380930496E-02   3.250911414503552E-02
   3.331050677822524E-02   3.413109464331484E-02   3.497130877945220E-02
   3.583158840832201E-02   3.671238100787848E-02   3.761414238160306E-02
   3.853733672288602E-02   3.948243667410835E-02   4.044992337998003E-02
   4.144028653466134E-02   4.245402442217715E-02   4.349164394959893E-02
   4.455366067244865E-02   4.564059881174860E-02   4.675299126210897E-02
   4.789137959022009E-02   4.905631402307868E-02   5.024835342524826E-02
   5.146806526441916E-02   5.271602556449509E-02   5.399281884540170E-02
   5.529903804876943E-02   5.663528444860692E-02   5.800216754603928E-02
   5.940030494714202E-02   6.083032222286194E-02   6.229285274996776E-02
   6.378853753192809E-02   6.531802499856856E-02   6.688197078330838E-02
   6.848103747672918E-02   7.011589435517593E-02   7.178721708303731E-02
   7.349568738729928E-02   7.524199270291028E-02   7.702682578744133E-02
   7.885088430346546E-02   8.071487036702327E-02   8.261949006048505E-02
   8.456545290805409E-02   8.655347131210293E-02   8.858425994846764E-02
   9.065853511876679E-02   9.277701405775024E-02   9.494041419361982E-02
   9.714945235920711E-02   9.940484395182819E-02   1.017073020395786E-01
   1.040575364117744E-01   1.064562525711825E-01   1.089041506656366E-01
   1.114019243565744E-01   1.139502596219858E-01   1.165498334912130E-01
   1.192013127089994E-01   1.219053523261457E-01   1.246625942140966E-01
   1.274736655007516E-01   1.303391769247715E-01   1.332597211056334E-01
   1.362358707266823E-01   1.392681766284255E-01   1.423571658093242E-01
   1.455033393313601E-01   1.487071701276843E-01   1.519691007097012E-01
   1.552895407709997E-01   1.586688646856167E-01   1.621074088982103E-01
   1.656054692038233E-01   1.691632979150609E-01   1.727811009146353E-01
   1.764590345914210E-01   1.801972026583580E-01   1.839956528507552E-01
   1.878543735038199E-01   1.917732900085012E-01   1.957522611450699E-01
   1.997910752942112E-01   2.038894465257758E-01   2.080470105658025E-01
   2.122633206428627E-01   2.165378432153188E-01   2.208699535816567E-01
   2.252589313766475E-01   2.297039559567990E-01   2.342041016792497E-01
   2.387583330790649E-01   2.433654999507456E-01   2.480243323406411E-01
   2.527334354579801E-01   2.574912845132353E-01   2.622962194936873E-01
   2.671464398872380E-01   2.720399993667731E-01   2.769748004487524E-01
   2.819485891410952E-01   2.869589495969530E-01   2.920032987925495E-01
   2.970788812489041E-01   3.021827638190406E-01   3.073118305640672E-01
   3.124627777434374E-01   3.176321089466767E-01   3.228161303958792E-01
   3.280109464504278E-01   3.332124553475183E-01   3.384163452143188E-01
   3.436180903898548E-01   3.488129480969816E-01   3.539959555071648E-01
   3.591619272430644E-01   3.643054533662601E-01   3.694208978997278E-01
   3.745023979368887E-01   3.795438633912357E-01   3.845389774425605E-01
   3.894811977377399E-01   3.943637584057959E-01   3.991796729484635E-01
   4.039217380688445E-01   4.085825385016973E-01   4.131544529096243E-01
   4.176296609096917E-01   4.220001512948511E-01   4.262577315138865E-01
   4.303940384723444E-01   4.344005507150382E-01   4.382686020481161E-01
   4.419893966552658E-01   4.455540257583798E-01   4.489534858677374E-01
   4.521786986604849E-01   4.552205325187539E-01   4.580698257500702E-01
   4.607174115027213E-01   4.631541443772959E-01   4.653709287226734E-01
   4.673587485901838E-01   4.691086993033975E-01   4.706120205829983E-01
   4.718601311463221E-01   4.728446646793892E-01   4.735575070555582E-01
   4.739908346492591E-01   4.741371535656297E-01   4.739893395772840E-01
   4.735406785279639E-01   4.727849069295192E-01   4.717162524436862E-01
   4.703294739036334E-01   4.686199004924678E-01   4.665834696571079E-01
   4.642167632964890E-01   4.615170417234020E-01   4.584822748598495E-01
   4.551111700872727E-01   4.514031961359831E-01   4.473586023634402E-01
   4.429784327395670E-01   4.382645338300045E-01   4.332195560463323E-01
   4.278469474169322E-01   4.221509391248206E-01   4.161365220609001E-01
   4.098094136542221E-01   4.031760142669181E-01   3.962433524821067E-01
   3.890190186704068E-01   3.815110862966831E-01   3.737280205253259E-01
   3.656785738019855E-01   3.573716682342079E-01   3.488162647649844E-01
   3.400212193338293E-01   3.309951264512593E-01   3.217461508762446E-01
   3.122818483833397E-01   3.026089769376973E-01   2.927332999623623E-01
   2.826593837825317E-01   2.723903917650524E-01   2.619278781359234E-01
   2.512715849510485E-01   2.404199748963598E-01   2.293730063520105E-01
   2.181312046199158E-01   2.066951177764900E-01   1.950653164832805E-01
   1.832423939004939E-01   1.712269657036674E-01   1.590196702032525E-01
   1.466211685664057E-01   1.340321451397967E-01   1.212533078717781E-01
   1.082853888317987E-01   9.512914482448466E-02   8.178535809537082E-02
   6.825483712483055E-02   5.453841750633946E-02   4.063696290480649E-02
   2.655136609032371E-02   1.228255004232389E-02  -2.168530881206797E-03
  -1.680088971513292E-02  -3.161350560515774E-02  -4.660532247863222E-02
  -6.177524767466556E-02  -7.712215054023430E-02  -9.264486099917424E-02
  -1.083421681010971E-01  -1.242128185574018E-01  -1.402555152716458E-01
  -1.564689158716071E-01  -1.728516312503964E-01  -1.894022241239826E-01
  -2.061192076124519E-01  -2.230010438522604E-01  -2.400461426466272E-01
  -2.572528601610851E-01  -2.746194976710278E-01  -2.921443003678864E-01
  -3.098254562303262E-01  -3.276610949665765E-01  -3.456492870336952E-01
  -3.637880427392223E-01  -3.820753114302987E-01  -4.005089807749075E-01
  -4.190868761394535E-01  -4.378067600664108E-01  -4.566663318552548E-01
  -4.756632272493548E-01  -4.947950182309181E-01  -5.140592129254751E-01
  -5.334532556167533E-01  -5.529745268721223E-01  -5.726203437780943E-01
  -5.923879602846382E-01  -6.122745676563207E-01  -6.322772950275026E-01
  -6.523932100580256E-01  -6.726193196849871E-01  -6.929525709653652E-01
  -7.133898520033761E-01  -7.339279929555592E-01  -7.545637671056793E-01
  -7.752938920006039E-01  -7.961150306373765E-01  -8.170237926907494E-01
  -8.380167357694728E-01  -8.590903666886578E-01  -8.802411427445507E-01
  -9.014654729770566E-01  -9.227597194043646E-01  -9.441201982130255E-01
  -9.655431808858418E-01  -9.870248952489395E-01  -1.008561526418414E+00
  -1.030149217625962E+00  -1.051784070901967E+00  -1.073462147593557E+00
  -1.095179468694234E+00  -1.116932014960796E+00  -1.138715726792380E+00
  -1.160526503845656E+00  -1.182360204359372E+00  -1.204212644160733E+00
  -1.226079595325353E+00  -1.247956784461899E+00  -1.269839890591916E+00
  -1.291724542594808E+00  -1.313606316187456E+00  -1.335480730407582E+00
  -1.357343243569608E+00  -1.379189248661565E+00  -1.401014068151421E+00
  -1.422812948171168E+00  -1.444581052047039E+00  -1.466313453144404E+00
  -1.488005126996157E+00  -1.509650942683786E+00  -1.531245653440881E+00
  -1.552783886449462E+00  -1.574260131800332E+00  -1.595668730589622E+00
  -1.617003862124798E+00  -1.638259530214709E+00  -1.659429548519708E+00
  -1.680507524939527E+00  -1.701486845018439E+00  -1.722360654349300E+00
  -1.743121839960303E+00  -1.763763010670803E+00  -1.784276476405261E+00
  -1.804654226457366E+00  -1.824887906699577E+00  -1.844968795736875E+00
  -1.864887780007255E+00  -1.884635327835589E+00  -1.904201462451846E+00
  -1.923575733989385E+00  -1.942747190484041E+00  -1.961704347900132E+00
  -1.980435159215238E+00  -1.998926982601744E+00  -2.017166548749651E+00
  -2.035139927382073E+00  -2.052832493022205E+00  -2.070228890078334E+00
  -2.087312997321719E+00  -2.104067891840892E+00  -2.120475812565148E+00
  -2.136518123459745E+00  -2.152175276505560E+00  -2.167426774586776E+00
  -2.182251134421530E+00  -2.196625849682370E+00  -2.210527354465945E+00
  -2.223930987284425E+00  -2.236810955764962E+00  -2.249140302257850E+00
  -2.260890870569079E+00  -2.272033274048664E+00  -2.282536865282435E+00
  -2.292369707651992E+00  -2.301498549045144E+00  -2.309888798017478E+00
  -2.317504502724606E+00  -2.324308332964248E+00  -2.330261565687465E+00
  -2.335324074359130E+00  -2.339454322569030E+00  -2.342609362316853E+00
  -2.344744837416543E+00  -2.345814992488240E+00  -2.345772688029014E+00
  -2.344569422070738E+00  -2.342155358961932E+00  -2.338479365881178E+00
  -2.333489057620675E+00  -2.327130850163910E+00  -2.319350023909867E+00
  -2.310090797036347E+00  -2.299296409598869E+00  -2.286909219270381E+00
  -2.272870809284868E+00  -2.257122109370243E+00  -2.239603530378586E+00
  -2.220255113468070E+00  -2.199027033421689E+00  -2.175902174099574E+00
  -2.150852067021542E+00  -2.123790105850668E+00  -2.094661589000959E+00
  -2.063403105357658E+00  -2.029953920648208E+00  -1.994254714112376E+00
  -1.956248004974475E+00  -1.915878486023848E+00  -1.873093374978114E+00
  -1.827842788853253E+00  -1.780080141113301E+00  -1.729762561931078E+00
  -1.676851342033687E+00  -1.621312400152083E+00  -1.563116774148755E+00
  -1.502241135685938E+00  -1.438668328137876E+00  -1.372387927257108E+00
  -1.303396823890221E+00  -1.231699827800146E+00  -1.157310291388410E+00
  -1.080250751820567E+00  -1.000553589739908E+00  -9.182617024073735E-01
  -8.334291887282065E-01  -7.461220432173606E-01  -6.564188555152721E-01
  -5.644115115927766E-01  -4.702058922784549E-01  -3.739225642036304E-01
  -2.756974576900698E-01  -1.756825255041288E-01  -7.404637577007520E-02
   2.902512832328647E-02   1.333283100720197E-01   2.386411708165699E-01
   3.447229409870974E-01   4.513137008434302E-01   5.581340818565220E-01
   6.648850604137566E-01   7.712478562542001E-01   8.768839487416742E-01
   9.814352247513396E-01   1.084524272565808E+00   1.185754836734333E+00
   1.284712449326236E+00   1.380965253388321E+00   1.474065034674561E+00
   1.563548477831670E+00   1.648938663171144E+00   1.729746819909632E+00
   1.805474351285951E+00   1.875615146233311E+00   1.939658191266552E+00
   1.997090494901854E+00   2.047400335224617E+00   2.090080839123456E+00
   2.124633899177341E+00   2.150574431182040E+00   2.167434971795003E+00
   2.174770611730597E+00   2.172164255318273E+00   2.159232192017363E+00
   2.135629959640997E+00   2.101058472562224E+00   2.055270381050256E+00
   1.998076620116388E+00   1.929353097852302E+00   1.849047464247548E+00
   1.757185891923890E+00   1.653879790187463E+00   1.539332363362670E+00
   1.413844913646614E+00   1.277822777849225E+00   1.131780776531913E+00
   9.763480434290512E-01   8.122720928696381E-01   6.404219734857468E-01
   4.617903481134558E-01   2.774943328137645E-01   8.877492275826207E-02
  -1.030051702316829E-01  -2.963654439648958E-01  -4.897134685185869E-01
  -6.813528511172813E-01  -8.694934582079974E-01  -1.052264033932178E+00
  -1.227727333056896E+00  -1.393897859369696E+00  -1.548762267062133E+00
  -1.690302442283578E+00  -1.816521234479179E+00  -1.925470752085717E+00
  -2.015283074541889E+00  -2.084203162449661E+00  -2.130623670392290E+00
  -2.153121282921079E+00  -2.150494104414871E+00  -2.121799539082386E+00
  -2.066391999888316E+00  -1.983959686629548E+00  -1.874559576209715E+00
  -1.738649675276937E+00  -1.577117500209781E+00  -1.391303675858741E+00
  -1.183019486844840E+00  -9.545571783839091E-01  -7.086917927085784E-01
  -4.486733476297672E-01  -1.782082211772435E-01   9.857129389259965E-02
   3.771501543652991E-01   6.526871382113701E-01   9.200852557372381E-01
   1.174076116712874E+00   1.409317993848800E+00   1.620506887204126E+00
   1.802499401768872E+00   1.950445707586473E+00   2.059930267673235E+00
   2.127117406658727E+00   2.148898169557412E+00   2.123034306697711E+00
   2.048294643245709E+00   1.924578579888566E+00   1.753021058927271E+00
   1.536073054405241E+00   1.277551545442160E+00   9.826530491296805E-01
   6.579251629165078E-01   3.111912331932672E-01  -4.857574189789488E-02
  -4.114325287419714E-01  -7.666992499363633E-01  -1.103245956775049E+00
  -1.409828606483613E+00  -1.675468202134681E+00  -1.889863974123021E+00
  -2.043828489576069E+00  -2.129729599036482E+00  -2.141921326279876E+00
  -2.077143362436441E+00  -1.934866947586210E+00  -1.717563835179232E+00
  -1.430874965878445E+00  -1.083656648646151E+00  -6.878846544745975E-01
  -2.584008244845262E-01   1.875073341826241E-01   6.306960463600140E-01
   1.050916538301828E+00   1.427710639523606E+00   1.741421845004476E+00
   1.974281271644369E+00   2.111516601766390E+00   2.142421977926265E+00
   2.061318873329637E+00   1.868333255841686E+00   1.569913938239862E+00
   1.179021826344104E+00   7.149306156070752E-01   2.025968169500893E-01
  -3.284191413895064E-01  -8.454690876066485E-01  -1.314724114887202E+00
  -1.703388156959199E+00  -1.982095583884232E+00  -2.127334796305048E+00
  -2.123710915600916E+00  -1.965842470587953E+00  -1.659683521106393E+00
    </PP_PSWFC.4>
  </PP_FULL_WFC>
  <PP_RHOATOM size="1095">
   1.186136211875864E-07   1.216163395025330E-07   1.246950720037132E-07
   1.278517429999354E-07   1.310883255141446E-07   1.344068425166271E-07
   1.378093681894356E-07   1.412980292228228E-07   1.448750061444937E-07
   1.485425346825100E-07   1.523029071626944E-07   1.561584739414123E-07
   1.601116448746235E-07   1.641648908241238E-07   1.683207452019184E-07
   1.725818055536877E-07   1.769507351823437E-07   1.814302648126838E-07
   1.860231942981861E-07   1.907323943710152E-07   1.955608084363243E-07
   2.005114544119865E-07   2.055874266148951E-07   2.107918976950177E-07
   2.161281206184118E-07   2.215994307004381E-07   2.272092476904489E-07
   2.329610779092477E-07   2.388585164406606E-07   2.449052493785884E-07
   2.511050561309406E-07   2.574618117818972E-07   2.639794895139696E-07
   2.706621630913774E-07   2.775140094062936E-07   2.845393110895451E-07
   2.917424591874068E-07   2.991279559061596E-07   3.067004174261246E-07
   3.144645767869402E-07   3.224252868458737E-07   3.305875233110303E-07
   3.389563878513440E-07   3.475371112853015E-07   3.563350568503886E-07
   3.653557235553015E-07   3.746047496170232E-07   3.840879159849089E-07
   3.938111499539853E-07   4.037805288697231E-07   4.140022839265903E-07
   4.244828040627763E-07   4.352286399535064E-07   4.462465081054469E-07
   4.575432950547697E-07   4.691260616714804E-07   4.810020475727211E-07
   4.931786756477935E-07   5.056635566977349E-07   5.184644941923483E-07
   5.315894891476552E-07   5.450467451268239E-07   5.588446733677016E-07
   5.729918980401443E-07   5.874972616364501E-07   6.023698304982368E-07
   6.176189004832495E-07   6.332540027756169E-07   6.492849098431992E-07
   6.657216415457518E-07   6.825744713977105E-07   6.998539329895322E-07
   7.175708265715882E-07   7.357362258047317E-07   7.543614846817673E-07
   7.734582446241227E-07   7.930384417581959E-07   8.131143143758912E-07
   8.336984105840319E-07   8.548035961474194E-07   8.764430625304357E-07
   8.986303351422334E-07   9.213792817906522E-07   9.447041213501467E-07
   9.686194326491596E-07   9.931401635824668E-07   1.018281640454218E-06
   1.044059577557501E-06   1.070490086996407E-06   1.097589688756775E-06
   1.125375321031838E-06   1.153864350809314E-06   1.183074584726486E-06
   1.213024280200103E-06   1.243732156838031E-06   1.275217408139796E-06
   1.307499713493348E-06   1.340599250475511E-06   1.374536707463846E-06
   1.409333296567784E-06   1.445010766887112E-06   1.481591418106125E-06
   1.519098114431909E-06   1.557554298885487E-06   1.596984007954770E-06
   1.637411886618425E-06   1.678863203750126E-06   1.721363867912741E-06
   1.764940443552389E-06   1.809620167602454E-06   1.855430966507929E-06
   1.902401473680773E-06   1.950561047397150E-06   1.999939789147755E-06
   2.050568562452713E-06   2.102479012152758E-06   2.155703584188831E-06
   2.210275545882393E-06   2.266229006729162E-06   2.323598939719269E-06
   2.382421203197152E-06   2.442732563274860E-06   2.504570716812779E-06
   2.567974314982131E-06   2.632982987424016E-06   2.699637367020029E-06
   2.767979115289998E-06   2.838050948432704E-06   2.909896664025843E-06
   2.983561168401964E-06   3.059090504717400E-06   3.136531881731882E-06
   3.215933703316704E-06   3.297345598709932E-06   3.380818453537617E-06
   3.466404441620275E-06   3.554157057584665E-06   3.644131150301187E-06
   3.736382957167745E-06   3.830970139261651E-06   3.927951817381367E-06
   4.027388609000786E-06   4.129342666159035E-06   4.233877714309539E-06
   4.341059092152647E-06   4.450953792476650E-06   4.563630504032809E-06
   4.679159654470541E-06   4.797613454359556E-06   4.919065942326584E-06
   5.043593031334746E-06   5.171272556134659E-06   5.302184321916856E-06
   5.436410154195949E-06   5.574033949957769E-06   5.715141730101335E-06
   5.859821693208632E-06   6.008164270675642E-06   6.160262183239181E-06
   6.316210498934904E-06   6.476106692522587E-06   6.640050706416040E-06
   6.808145013155561E-06   6.980494679462117E-06   7.157207431913252E-06
   7.338393724281668E-06   7.524166806578977E-06   7.714642795847179E-06
   7.909940748742736E-06   8.110182735958278E-06   8.315493918528430E-06
   8.526002626067882E-06   8.741840436990068E-06   8.963142260757030E-06
   9.190046422211802E-06   9.422694748045769E-06   9.661232655455720E-06
   9.905809243045190E-06   1.015657738402761E-05   1.041369382178933E-05
   1.067731926787201E-05   1.094761850243630E-05   1.122476047726877E-05
   1.150891842139730E-05   1.180026994938060E-05   1.209899717233938E-05
   1.240528681179932E-05   1.271933031641614E-05   1.304132398165642E-05
   1.337146907250890E-05   1.370997194930261E-05   1.405704419671135E-05
   1.441290275602408E-05   1.477777006076506E-05   1.515187417574796E-05
   1.553544893965069E-05   1.592873411120116E-05   1.633197551906397E-05
   1.674542521552307E-05   1.716934163405596E-05   1.760398975089756E-05
   1.804964125069617E-05   1.850657469636335E-05   1.897507570322555E-05
   1.945543711758575E-05   1.994795919980635E-05   2.045294981202928E-05
   2.097072461064898E-05   2.150160724366013E-05   2.204592955300313E-05
   2.260403178203315E-05   2.317626278824435E-05   2.376298026138044E-05
   2.436455094706923E-05   2.498135087612122E-05   2.561376559963442E-05
   2.626219043005462E-05   2.692703068833970E-05   2.760870195738450E-05
   2.830763034186399E-05   2.902425273465701E-05   2.975901709001887E-05
   3.051238270367167E-05   3.128482049998946E-05   3.207681332645751E-05
   3.288885625558875E-05   3.372145689448917E-05   3.457513570226265E-05
   3.545042631545677E-05   3.634787588175185E-05   3.726804540210192E-05
   3.821151008154386E-05   3.917885968889135E-05   4.017069892554163E-05
   4.118764780362474E-05   4.223034203373152E-05   4.329943342246545E-05
   4.439559028006400E-05   4.551949783834810E-05   4.667185867925987E-05
   4.785339317425606E-05   4.906483993483606E-05   5.030695627448201E-05
   5.158051868230444E-05   5.288632330868827E-05   5.422518646324338E-05
   5.559794512537332E-05   5.700545746778002E-05   5.844860339323441E-05
   5.992828508494925E-05   6.144542757089722E-05   6.300097930243117E-05
   6.459591274756628E-05   6.623122499929866E-05   6.790793839933983E-05
   6.962710117765923E-05   7.138978810823642E-05   7.319710118143242E-05
   7.505017029340395E-05   7.695015395299217E-05   7.889824000652879E-05
   8.089564638101594E-05   8.294362184614415E-05   8.504344679562868E-05
   8.719643404835318E-05   8.940392966982386E-05   9.166731381445035E-05
   9.398800158918146E-05   9.636744393903870E-05   9.880712855510298E-05
   1.013085808055253E-04   1.038733646901462E-04   1.065030838193234E-04
   1.091993824175822E-04   1.119639463527213E-04   1.147985041910178E-04
   1.177048282791971E-04   1.206847358538464E-04   1.237400901789702E-04
   1.268728017124033E-04   1.300848293018123E-04   1.333781814110432E-04
   1.367549173775798E-04   1.402171487019102E-04   1.437670403696100E-04
   1.474068122069728E-04   1.511387402710455E-04   1.549651582749406E-04
   1.588884590493228E-04   1.629110960409938E-04   1.670355848495152E-04
   1.712645048028409E-04   1.756005005729511E-04   1.800462838325047E-04
   1.846046349535595E-04   1.892784047494233E-04   1.940705162607455E-04
   1.989839665869654E-04   2.040218287642800E-04   2.091872536913165E-04
   2.144834721037184E-04   2.199137965989047E-04   2.254816237122674E-04
   2.311904360461300E-04   2.370438044528091E-04   2.430453902731548E-04
   2.491989476319957E-04   2.555083257919295E-04   2.619774715669573E-04
   2.686104317974862E-04   2.754113558882639E-04   2.823844984108620E-04
   2.895342217723466E-04   2.968649989518347E-04   3.043814163066703E-04
   3.120881764499969E-04   3.199901012015570E-04   3.280921346135880E-04
   3.363993460737374E-04   3.449169334869715E-04   3.536502265384907E-04
   3.626046900397381E-04   3.717859273596198E-04   3.811996839431252E-04
   3.908518509195857E-04   4.007484688028736E-04   4.108957312858876E-04
   4.212999891317608E-04   4.319677541642601E-04   4.429057033599267E-04
   4.541206830445763E-04   4.656197131968267E-04   4.774099918614194E-04
   4.894988996751438E-04   5.018940045082703E-04   5.146030662244568E-04
   5.276340415621791E-04   5.409950891408185E-04   5.546945745946116E-04
   5.687410758377636E-04   5.831433884641023E-04   5.979105312847373E-04
   6.130517520073019E-04   6.285765330604169E-04   6.444945975671313E-04
   6.608159154712017E-04   6.775507098201355E-04   6.947094632090810E-04
   7.123029243897114E-04   7.303421150483790E-04   7.488383367579269E-04
   7.678031781076518E-04   7.872485220160511E-04   8.071865532310924E-04
   8.276297660228720E-04   8.485909720736671E-04   8.700833085705067E-04
   8.921202465055430E-04   9.147155991896196E-04   9.378835309845979E-04
   9.616385662601535E-04   9.859955985808660E-04   1.010969900129669E-03
   1.036577131373777E-03   1.062833350979473E-03   1.089755025982253E-03
   1.117359042218995E-03   1.145662715029067E-03   1.174683800231375E-03
   1.204440505384633E-03   1.234951501338289E-03   1.266235934081719E-03
   1.298313436899595E-03   1.331204142841451E-03   1.364928697513734E-03
   1.399508272202894E-03   1.434964577338186E-03   1.471319876303246E-03
   1.508596999605622E-03   1.546819359413762E-03   1.586010964471223E-03
   1.626196435398078E-03   1.667401020389871E-03   1.709650611324653E-03
   1.752971760289003E-03   1.797391696534196E-03   1.842938343874027E-03
   1.889640338536064E-03   1.937527047478531E-03   1.986628587185240E-03
   2.036975842951455E-03   2.088600488673881E-03   2.141535007158285E-03
   2.195812710958807E-03   2.251467763763221E-03   2.308535202338950E-03
   2.367050959055015E-03   2.427051884995494E-03   2.488575773680603E-03
   2.551661385411883E-03   2.616348472258515E-03   2.682677803702253E-03
   2.750691192958920E-03   2.820431523995078E-03   2.891942779258840E-03
   2.965270068144493E-03   3.040459656211103E-03   3.117558995175847E-03
   3.196616753703523E-03   3.277682849014234E-03   3.360808479331865E-03
   3.446046157196812E-03   3.533449743666882E-03   3.623074483431181E-03
   3.714977040862511E-03   3.809215537034459E-03   3.905849587730341E-03
   4.004940342471718E-03   4.106550524595363E-03   4.210744472408137E-03
   4.317588181450330E-03   4.427149347898866E-03   4.539497413142705E-03
   4.654703609563908E-03   4.772841007558686E-03   4.893984563833968E-03
   5.018211171016017E-03   5.145599708608770E-03   5.276231095340910E-03
   5.410188342941622E-03   5.547556611386537E-03   5.688423265656454E-03
   5.832877934052840E-03   5.981012568115630E-03   6.132921504190115E-03
   6.288701526691248E-03   6.448451933115464E-03   6.612274600851230E-03
   6.780274055841846E-03   6.952557543155132E-03   7.129235099516862E-03
   7.310419627866444E-03   7.496226973995163E-03   7.686776005329661E-03
   7.882188691924986E-03   8.082590189733820E-03   8.288108926220859E-03
   8.498876688393235E-03   8.715028713320746E-03   8.936703781221562E-03
   9.164044311192141E-03   9.397196459662360E-03   9.636310221659687E-03
   9.881539534969314E-03   1.013304238727976E-02   1.039098092640668E-02
   1.065552157369083E-02   1.092683514066935E-02   1.120509694912289E-02
   1.149048695460484E-02   1.178318987356237E-02   1.208339531416293E-02
   1.239129791094361E-02   1.270709746340537E-02   1.303099907867770E-02
   1.336321331838414E-02   1.370395634984382E-02   1.405345010174805E-02
   1.441192242445738E-02   1.477960725506806E-02   1.515674478740346E-02
   1.554358164709065E-02   1.594037107188852E-02   1.634737309743954E-02
   1.676485474862362E-02   1.719309023669855E-02   1.763236116241874E-02
   1.808295672532990E-02   1.854517393944566E-02   1.901931785551842E-02
   1.950570179012513E-02   2.000464756179626E-02   2.051648573442466E-02
   2.104155586819950E-02   2.158020677831968E-02   2.213279680174951E-02
   2.269969407229034E-02   2.328127680424986E-02   2.387793358500340E-02
   2.449006367674981E-02   2.511807732777746E-02   2.576239609356628E-02
   2.642345316806332E-02   2.710169372548326E-02   2.779757527299553E-02
   2.851156801467535E-02   2.924415522710754E-02   2.999583364704710E-02
   3.076711387155537E-02   3.155852077104469E-02   3.237059391568068E-02
   3.320388801560777E-02   3.405897337547860E-02   3.493643636378747E-02
   3.583687989752375E-02   3.676092394268048E-02   3.770920603117215E-02
   3.868238179473442E-02   3.968112551640018E-02   4.070613070016532E-02
   4.175811065947974E-02   4.283779912522147E-02   4.394595087383271E-02
   4.508334237632179E-02   4.625077246885764E-02   4.744906304570727E-02
   4.867905977529385E-02   4.994163284017549E-02   5.123767770177436E-02
   5.256811589071036E-02   5.393389582362176E-02   5.533599364738352E-02
   5.677541411166084E-02   5.825319147076767E-02   5.977039041582601E-02
   6.132810703825334E-02   6.292746982563721E-02   6.456964069108170E-02
   6.625581603714928E-02   6.798722785554472E-02   6.976514486372362E-02
   7.159087367963944E-02   7.346576003587091E-02   7.539119003440667E-02
   7.736859144339268E-02   7.939943503717894E-02   8.148523598103184E-02
   8.362755526190728E-02   8.582800116671045E-02   8.808823080949146E-02
   9.040995170905543E-02   9.279492341848897E-02   9.524495920812698E-02
   9.776192780350562E-02   1.003477551798652E-01   1.030044264147824E-01
   1.057339876005237E-01   1.085385478177212E-01   1.114202811719771E-01
   1.143814288950070E-01   1.174243015119212E-01   1.205512810762452E-01
   1.237648234742522E-01   1.270674608001721E-01   1.304618038038028E-01
   1.339505444120175E-01   1.375364583256161E-01   1.412224076929103E-01
   1.450113438613709E-01   1.489063102085867E-01   1.529104450536931E-01
   1.570269846503295E-01   1.612592662620586E-01   1.656107313210598E-01
   1.700849286707429E-01   1.746855178927655E-01   1.794162727187506E-01
   1.842810845267719E-01   1.892839659224604E-01   1.944290544043034E-01
   1.997206161124256E-01   2.051630496598246E-01   2.107608900446728E-01
   2.165188126419218E-01   2.224416372720143E-01   2.285343323440515E-01
   2.348020190702596E-01   2.412499757480464E-01   2.478836421053503E-01
   2.547086237043303E-01   2.617306963977454E-01   2.689558108316195E-01
   2.763900969869551E-01   2.840398687523929E-01   2.919116285187447E-01
   3.000120717853150E-01   3.083480917668197E-01   3.169267839885271E-01
   3.257554508559914E-01   3.348416061843839E-01   3.441929796709839E-01
   3.538175212928545E-01   3.637234056100646E-01   3.739190359530936E-01
   3.844130484711719E-01   3.952143160163417E-01   4.063319518359451E-01
   4.177753130439955E-01   4.295540038395972E-01   4.416778784380702E-01
   4.541570436778534E-01   4.670018612635397E-01   4.802229496024974E-01
   4.938311851895706E-01   5.078377034911784E-01   5.222538992768746E-01
   5.370914263430222E-01   5.523621965696842E-01   5.680783782481903E-01
   5.842523936130277E-01   6.008969155078207E-01   6.180248631111616E-01
   6.356493966439315E-01   6.537839109756248E-01   6.724420280429052E-01
   6.916375879893688E-01   7.113846389311890E-01   7.316974252489996E-01
   7.525903743021644E-01   7.740780814573298E-01   7.961752933191348E-01
   8.188968890469936E-01   8.422578596381296E-01   8.662732850536057E-01
   8.909583090608957E-01   9.163281116637869E-01   9.423978789880865E-01
   9.691827704897761E-01   9.966978833511715E-01   1.024958213930128E+00
   1.053978616127750E+00   1.083773756541391E+00   1.114358066272066E+00
   1.145745689259033E+00   1.177950427019135E+00   1.210985679674906E+00
   1.244864383163480E+00   1.279598942528072E+00   1.315201161205737E+00
   1.351682166238927E+00   1.389052329354775E+00   1.427321183874851E+00
   1.466497337439686E+00   1.506588380557070E+00   1.547600791010589E+00
   1.589539834196117E+00   1.632409459488577E+00   1.676212192779441E+00
   1.720949025368021E+00   1.766619299435689E+00   1.813220590382877E+00
   1.860748586363752E+00   1.909196965412513E+00   1.958557270619511E+00
   2.008818783883279E+00   2.059968398837557E+00   2.111990493629298E+00
   2.164866804304497E+00   2.218576299643862E+00   2.273095058378083E+00
   2.328396149803800E+00   2.384449518914549E+00   2.441221877255383E+00
   2.498676600805396E+00   2.556773636286413E+00   2.615469417388914E+00
   2.674716792495206E+00   2.734464965563390E+00   2.794659451912599E+00
   2.855242050716589E+00   2.916150836068131E+00   2.977320168516929E+00
   3.038680729006004E+00   3.100159577133230E+00   3.161680235640760E+00
   3.223162802983226E+00   3.284524095740558E+00   3.345677822518713E+00
   3.406534790818154E+00   3.467003148138728E+00   3.526988658328285E+00
   3.586395013864196E+00   3.645124184377967E+00   3.703076801289435E+00
   3.760152577902834E+00   3.816250763730456E+00   3.871270631146464E+00
   3.925111991731695E+00   3.977675738849943E+00   4.028864412096089E+00
   4.078582778280284E+00   4.126738422563155E+00   4.173242342241521E+00
   4.218009534512080E+00   4.260959568323270E+00   4.302017129180124E+00
   4.341112524512381E+00   4.378182135976769E+00   4.413168803869838E+00
   4.446022127710935E+00   4.476698666056589E+00   4.505162017772056E+00
   4.531382766364240E+00   4.555338268629893E+00   4.577012268855610E+00
   4.596394320190155E+00   4.613478995667318E+00   4.628264872764963E+00
   4.640753277422911E+00   4.650946776188068E+00   4.658847408689869E+00
   4.664454657047726E+00   4.667763154144624E+00   4.668760139026763E+00
   4.667422675053174E+00   4.663714654848832E+00   4.657583625611840E+00
   4.648957478862656E+00   4.637741060237331E+00   4.623840045522090E+00
   4.607252496096643E+00   4.588008076991301E+00   4.566143849364562E+00
   4.541704222554621E+00   4.514740903060846E+00   4.485312854813992E+00
   4.453486287683868E+00   4.419334693707898E+00   4.382933864609117E+00
   4.344345394579894E+00   4.303629515208704E+00   4.260849681900892E+00
   4.216072399039275E+00   4.169367037739521E+00   4.120805646933404E+00
   4.070462758532980E+00   4.018415187446962E+00   3.964741827213275E+00
   3.909523419785249E+00   3.852842282029217E+00   3.794782139163278E+00
   3.735428023752628E+00   3.674865955648304E+00   3.613182770697212E+00
   3.550465898540125E+00   3.486803153342354E+00   3.422282525685026E+00
   3.356991977731304E+00   3.291019242243971E+00   3.224451626073803E+00
   3.157375818709472E+00   3.089877706444689E+00   3.022042192682208E+00
   2.953953024856483E+00   2.885692628417968E+00   2.817341948290864E+00
   2.748980298126413E+00   2.680685217746419E+00   2.612532339001353E+00
   2.544595260261871E+00   2.476945429832593E+00   2.409652038350622E+00
   2.342781920332124E+00   2.276399464935577E+00   2.210566535981120E+00
   2.145342401228290E+00   2.080783670878372E+00   2.016944245233308E+00
   1.953875271410019E+00   1.891625108977677E+00   1.830239304355679E+00
   1.769760573782217E+00   1.710228794637258E+00   1.651681004879454E+00
   1.594151410334268E+00   1.537671399550151E+00   1.482269565921178E+00
   1.427971736758039E+00   1.374801008974708E+00   1.322777791045453E+00
   1.271919850876074E+00   1.222242369224376E+00   1.173757998297780E+00
   1.126476925150665E+00   1.080406939500481E+00   1.035553505579730E+00
   9.919198376406440E-01   9.495069787306146E-01   9.083138823591714E-01
   8.683374966814524E-01   8.295728508285755E-01   7.920131430220700E-01
   7.556498301174557E-01   7.204727182310957E-01   6.864700541145095E-01
   6.536286169513493E-01   6.219338102641280E-01   5.913697536304390E-01
   5.619193739217863E-01   5.335644957921237E-01   5.062859311577165E-01
   4.800635674249285E-01   4.548764542378748E-01   4.307028885335219E-01
   4.075204977076773E-01   3.853063207112808E-01   3.640368869124663E-01
   3.436882925758782E-01   3.242362748266566E-01   3.056562829822768E-01
   2.879235471509743E-01   2.710131440107187E-01   2.549000596976062E-01
   2.395592497470084E-01   2.249656960448358E-01   2.110944607597660E-01
   1.979207372402332E-01   1.854198978723109E-01   1.735675389063323E-01
   1.623395222711288E-01   1.517120144051341E-01   1.416615221432372E-01
   1.321649257072046E-01   1.231995088556852E-01   1.147429862572732E-01
   1.067735281568397E-01   9.926978241134607E-02   9.221089397664288E-02
   8.557652193135151E-02   7.934685412783370E-02   7.350261956351138E-02
   6.802509856842121E-02   6.289613090691287E-02   5.809812189285427E-02
   5.361404661862620E-02   4.942745239861084E-02   4.552245952783508E-02
   4.188376045596481E-02   3.849661747599092E-02   3.534685902574516E-02
   3.242087469886638E-02   2.970560906004557E-02   2.718855435734060E-02
   2.485774222210792E-02   2.270173444467429E-02   2.070961291129980E-02
   1.887096878528921E-02   1.717589101231674E-02   1.561495422716251E-02
   1.417920613613637E-02   1.286015444650392E-02   1.164975341124606E-02
   1.054039005448896E-02   9.524870139948351E-03   8.596403941747158E-03
   7.748591873998309E-03   6.975410032598566E-03   6.271195699759898E-03
   5.630632858915186E-03   5.048737764777238E-03   4.520844610505923E-03
   4.042591331149254E-03   3.609905579771342E-03   3.218990909964541E-03
   2.866313195765949E-03   2.548587317361250E-03   2.262764138363365E-03
   2.006017797901879E-03   1.775733338254464E-03   1.569494686296662E-03
   1.385073004645379E-03   1.220415426028292E-03   1.073634182130975E-03
   9.429961359608037E-04   8.269127246269723E-04   7.239303173748016E-04
   6.327209917354148E-04   5.520737287644117E-04   4.808860265507038E-04
   4.181559294842754E-04   3.629744691840209E-04   3.145185115081039E-04
   2.720440027031533E-04   2.348796064978992E-04   2.024207228137539E-04
   1.741238777506901E-04   1.495014736120665E-04   1.281168869564426E-04
   1.095799020066652E-04   9.354246620451124E-05   7.969475426999743E-05
   6.776152680440449E-05   5.749876926065353E-05   4.869059698878439E-05
   4.114641204220847E-05   3.469829749590885E-05   2.919863517418920E-05
   2.451793290595535E-05   2.054284771263884E-05   1.717439168039127E-05
   1.432630766669653E-05   1.192360243470818E-05   9.901225289188750E-06
   8.202880798872774E-06   6.779964724627772E-06   5.590612824508917E-06
   4.598852769636098E-06   3.773849973091109E-06   3.089238702741247E-06
   2.522530412658488E-06   2.054591784022319E-06   1.669185508894186E-06
   1.352567377794251E-06   1.093133741989422E-06   8.811139093714437E-07
   7.083024993927081E-07   5.678272251642943E-07   4.539479879581542E-07
   3.618835962682328E-07   2.876623661941281E-07   2.279962713433568E-07
   1.801646987782767E-07   1.419358129622360E-07   1.114760828066272E-07
   8.727918275537553E-08   6.811473132139082E-08   5.298193474123013E-08
   4.106921315041313E-08   3.172044774257268E-08   2.440685180928974E-08
   1.870360330336819E-08   1.427049560468916E-08   1.083596802661831E-08
   8.183969601830606E-09   6.143190127867577E-09   4.578262565575642E-09
   3.382601602049364E-09   2.472595328301875E-09   1.782924010912416E-09
   1.262731665775324E-09   8.740396959948940E-10   5.806386456305472E-10
   0.000000000000000E+00   0.000000000000000E+00   0.000000000000000E+00
   0.000000000000000E+00   0.000000000000000E+00   0.000000000000000E+00
   0.000000000000000E+00   0.000000000000000E+00   0.000000000000000E+00
   0.000000000000000E+00   0.000000000000000E+00   0.000000000000000E+00
   0.000000000000000E+00   0.000000000000000E+00   0.000000000000000E+00
   0.000000000000000E+00   0.000000000000000E+00   0.000000000000000E+00
   0.000000000000000E+00   0.000000000000000E+00   0.000000000000000E+00
   0.000000000000000E+00   0.000000000000000E+00   0.000000000000000E+00
   0.000000000000000E+00   0.000000000000000E+00   0.000000000000000E+00
   0.000000000000000E+00   0.000000000000000E+00   0.000000000000000E+00
   0.000000000000000E+00   0.000000000000000E+00   0.000000000000000E+00
   0.000000000000000E+00   0.000000000000000E+00   0.000000000000000E+00
   0.000000000000000E+00   0.000000000000000E+00   0.000000000000000E+00
   0.000000000000000E+00   0.000000000000000E+00   0.000000000000000E+00
   0.000000000000000E+00   0.000000000000000E+00   0.000000000000000E+00
   0.000000000000000E+00   0.000000000000000E+00   0.000000000000000E+00
   0.000000000000000E+00   0.000000000000000E+00   0.000000000000000E+00
   0.000000000000000E+00   0.000000000000000E+00   0.000000000000000E+00
   0.000000000000000E+00   0.000000000000000E+00   0.000000000000000E+00
   0.000000000000000E+00   0.000000000000000E+00   0.000000000000000E+00
   0.000000000000000E+00   0.000000000000000E+00   0.000000000000000E+00
   0.000000000000000E+00   0.000000000000000E+00   0.000000000000000E+00
   0.000000000000000E+00   0.000000000000000E+00   0.000000000000000E+00
   0.000000000000000E+00   0.000000000000000E+00   0.000000000000000E+00
   0.000000000000000E+00   0.000000000000000E+00   0.000000000000000E+00
   0.000000000000000E+00   0.000000000000000E+00   0.000000000000000E+00
   0.000000000000000E+00   0.000000000000000E+00   0.000000000000000E+00
   0.000000000000000E+00   0.000000000000000E+00   0.000000000000000E+00
   0.000000000000000E+00   0.000000000000000E+00   0.000000000000000E+00
   0.000000000000000E+00   0.000000000000000E+00   0.000000000000000E+00
   0.000000000000000E+00   0.000000000000000E+00   0.000000000000000E+00
   0.000000000000000E+00   0.000000000000000E+00   0.000000000000000E+00
   0.000000000000000E+00   0.000000000000000E+00   0.000000000000000E+00
   0.000000000000000E+00   0.000000000000000E+00   0.000000000000000E+00
   0.000000000000000E+00   0.000000000000000E+00   0.000000000000000E+00
   0.000000000000000E+00   0.000000000000000E+00   0.000000000000000E+00
   0.000000000000000E+00   0.000000000000000E+00   0.000000000000000E+00
   0.000000000000000E+00   0.000000000000000E+00   0.000000000000000E+00
   0.000000000000000E+00   0.000000000000000E+00   0.000000000000000E+00
   0.000000000000000E+00   0.000000000000000E+00   0.000000000000000E+00
   0.000000000000000E+00   0.000000000000000E+00   0.000000000000000E+00
   0.000000000000000E+00   0.000000000000000E+00   0.000000000000000E+00
   0.000000000000000E+00   0.000000000000000E+00   0.000000000000000E+00
   0.000000000000000E+00   0.000000000000000E+00   0.000000000000000E+00
   0.000000000000000E+00   0.000000000000000E+00   0.000000000000000E+00
   0.000000000000000E+00   0.000000000000000E+00   0.000000000000000E+00
   0.000000000000000E+00   0.000000000000000E+00   0.000000000000000E+00
   0.000000000000000E+00   0.000000000000000E+00   0.000000000000000E+00
   0.000000000000000E+00   0.000000000000000E+00   0.000000000000000E+00
   0.000000000000000E+00   0.000000000000000E+00   0.000000000000000E+00
   0.000000000000000E+00   0.000000000000000E+00   0.000000000000000E+00
  </PP_RHOATOM>
  <PP_PAW paw_data_format="2" core_energy="-108.88641374056633">
    <PP_OCCUPATIONS size="4">
   2.000000000000000E+00   0.000000000000000E+00   4.000000000000000E+00
   0.000000000000000E+00
    </PP_OCCUPATIONS>
    <PP_AE_NLCC size="1095">
   2.987300893098687E+02   2.987173524943535E+02   2.987046162218919E+02
   2.986918804924608E+02   2.986790577791792E+02   2.986659663020219E+02
   2.986526557357138E+02   2.986391186228362E+02   2.986253567948058E+02
   2.986113720161662E+02   2.985971659684759E+02   2.985827402531319E+02
   2.985680963927973E+02   2.985532358327369E+02   2.985381599421193E+02
   2.985228700152853E+02   2.985073672729730E+02   2.984916528635098E+02
   2.984757278639690E+02   2.984595932812880E+02   2.984432500533593E+02
   2.984266990500815E+02   2.984099410743818E+02   2.983929768632040E+02
   2.983758070884666E+02   2.983584323579925E+02   2.983408532164042E+02
   2.983230701459940E+02   2.983050835675636E+02   2.982868938412340E+02
   2.982685012672335E+02   2.982499060866527E+02   2.982311084821770E+02
   2.982121085787924E+02   2.981929064444636E+02   2.981735020907933E+02
   2.981538954736514E+02   2.981340864937833E+02   2.981140749973948E+02
   2.980938607767117E+02   2.980734435705235E+02   2.980528230646965E+02
   2.980319988926730E+02   2.980109706359449E+02   2.979897378245070E+02
   2.979682999372932E+02   2.979466564025906E+02   2.979248065984320E+02
   2.979027498529744E+02   2.978804854448522E+02   2.978580126035193E+02
   2.978353305095670E+02   2.978124382950266E+02   2.977893350436557E+02
   2.977660197912026E+02   2.977424915256610E+02   2.977187491875025E+02
   2.976947916698938E+02   2.976706178189002E+02   2.976462264336689E+02
   2.976216162666032E+02   2.975967860235148E+02   2.975717343637651E+02
   2.975464599003915E+02   2.975209612002149E+02   2.974952367839404E+02
   2.974692851262371E+02   2.974431046558062E+02   2.974166937554373E+02
   2.973900507620469E+02   2.973631739667088E+02   2.973360616146666E+02
   2.973087119053358E+02   2.972811229922937E+02   2.972532929832516E+02
   2.972252199400225E+02   2.971969018784703E+02   2.971683367684486E+02
   2.971395225337276E+02   2.971104570519084E+02   2.970811381543276E+02
   2.970515636259473E+02   2.970217312052357E+02   2.969916385840355E+02
   2.969612834074198E+02   2.969306632735402E+02   2.968997757334602E+02
   2.968686182909792E+02   2.968371884024464E+02   2.968054834765611E+02
   2.967735008741661E+02   2.967412379080284E+02   2.967086918426083E+02
   2.966758598938210E+02   2.966427392287837E+02   2.966093269655578E+02
   2.965756201728763E+02   2.965416158698628E+02   2.965073110257413E+02
   2.964727025595319E+02   2.964377873397444E+02   2.964025621840530E+02
   2.963670238589674E+02   2.963311690794923E+02   2.962949945087740E+02
   2.962584967577438E+02   2.962216723847459E+02   2.961845178951581E+02
   2.961470297410032E+02   2.961092043205481E+02   2.960710379778986E+02
   2.960325270025793E+02   2.959936676291069E+02   2.959544560365538E+02
   2.959148883480998E+02   2.958749606305799E+02   2.958346688940164E+02
   2.957940090911457E+02   2.957529771169346E+02   2.957115688080852E+02
   2.956697799425356E+02   2.956276062389456E+02   2.955850433561769E+02
   2.955420868927621E+02   2.954987323863637E+02   2.954549753132276E+02
   2.954108110876234E+02   2.953662350612764E+02   2.953212425227912E+02
   2.952758286970642E+02   2.952299887446902E+02   2.951837177613561E+02
   2.951370107772272E+02   2.950898627563236E+02   2.950422685958855E+02
   2.949942231257350E+02   2.949457211076215E+02   2.948967572345616E+02
   2.948473261301700E+02   2.947974223479771E+02   2.947470403707437E+02
   2.946961746097600E+02   2.946448194041390E+02   2.945929690200992E+02
   2.945406176502370E+02   2.944877594127920E+02   2.944343883509013E+02
   2.943804984318434E+02   2.943260835462754E+02   2.942711375074566E+02
   2.942156540504674E+02   2.941596268314153E+02   2.941030494266320E+02
   2.940459153318620E+02   2.939882179614386E+02   2.939299506474561E+02
   2.938711066389263E+02   2.938116791009284E+02   2.937516611137495E+02
   2.936910456720125E+02   2.936298256838000E+02   2.935679939697621E+02
   2.935055432622186E+02   2.934424662042513E+02   2.933787553487818E+02
   2.933144031576502E+02   2.932494020006695E+02   2.931837441546836E+02
   2.931174218026086E+02   2.930504270324627E+02   2.929827518363956E+02
   2.929143881096947E+02   2.928453276497941E+02   2.927755621552666E+02
   2.927050832248057E+02   2.926338823562057E+02   2.925619509453186E+02
   2.924892802850154E+02   2.924158615641279E+02   2.923416858663838E+02
   2.922667441693362E+02   2.921910273432728E+02   2.921145261501290E+02
   2.920372312423803E+02   2.919591331619289E+02   2.918802223389861E+02
   2.918004890909325E+02   2.917199236211817E+02   2.916385160180275E+02
   2.915562562534803E+02   2.914731341821029E+02   2.913891395398224E+02
   2.913042619427484E+02   2.912184908859709E+02   2.911318157423511E+02
   2.910442257613103E+02   2.909557100675956E+02   2.908662576600519E+02
   2.907758574103739E+02   2.906844980618518E+02   2.905921682281147E+02
   2.904988563918521E+02   2.904045509035409E+02   2.903092399801537E+02
   2.902129117038614E+02   2.901155540207327E+02   2.900171547394145E+02
   2.899177015298148E+02   2.898171819217715E+02   2.897155833037128E+02
   2.896128929213168E+02   2.895090978761518E+02   2.894041851243206E+02
   2.892981414750909E+02   2.891909535895174E+02   2.890826079790655E+02
   2.889730910042145E+02   2.888623888730673E+02   2.887504876399460E+02
   2.886373732039806E+02   2.885230313077000E+02   2.884074475356033E+02
   2.882906073127396E+02   2.881724959032735E+02   2.880530984090455E+02
   2.879323997681354E+02   2.878103847534086E+02   2.876870379710693E+02
   2.875623438592036E+02   2.874362866863175E+02   2.873088505498794E+02
   2.871800193748464E+02   2.870497769122006E+02   2.869181067374753E+02
   2.867849922492777E+02   2.866504166678193E+02   2.865143630334302E+02
   2.863768142050860E+02   2.862377528589258E+02   2.860971614867699E+02
   2.859550223946457E+02   2.858113177013004E+02   2.856660293367279E+02
   2.855191390406897E+02   2.853706283612382E+02   2.852204786532456E+02
   2.850686710769322E+02   2.849151865964004E+02   2.847600059781722E+02
   2.846031097897290E+02   2.844444783980613E+02   2.842840919682180E+02
   2.841219304618676E+02   2.839579736358634E+02   2.837922010408153E+02
   2.836245920196739E+02   2.834551257063185E+02   2.832837810241599E+02
   2.831105366847493E+02   2.829353711863998E+02   2.827582628128221E+02
   2.825791896317691E+02   2.823981294936973E+02   2.822150600304411E+02
   2.820299586539010E+02   2.818428025547526E+02   2.816535687011662E+02
   2.814622338375510E+02   2.812687744833135E+02   2.810731669316372E+02
   2.808753872482860E+02   2.806754112704243E+02   2.804732146054662E+02
   2.802687726299451E+02   2.800620604884087E+02   2.798530530923438E+02
   2.796417251191240E+02   2.794280510109915E+02   2.792120049740660E+02
   2.789935609773843E+02   2.787726927519768E+02   2.785493737899732E+02
   2.783235773437484E+02   2.780952764251022E+02   2.778644438044784E+02
   2.776310520102250E+02   2.773950733278936E+02   2.771564797995847E+02
   2.769152432233354E+02   2.766713351525534E+02   2.764247268955019E+02
   2.761753895148297E+02   2.759232938271568E+02   2.756684104027113E+02
   2.754107095650204E+02   2.751501613906621E+02   2.748867357090710E+02
   2.746204021024092E+02   2.743511299054975E+02   2.740788882058116E+02
   2.738036458435475E+02   2.735253714117539E+02   2.732440332565365E+02
   2.729595994773370E+02   2.726720379272857E+02   2.723813162136357E+02
   2.720874016982737E+02   2.717902614983178E+02   2.714898624867977E+02
   2.711861712934246E+02   2.708791543054517E+02   2.705687776686266E+02
   2.702550072882419E+02   2.699378088302828E+02   2.696171477226753E+02
   2.692929891566425E+02   2.689652980881626E+02   2.686340392395428E+02
   2.682991771011020E+02   2.679606759329710E+02   2.676184997670136E+02
   2.672726124088674E+02   2.669229774401126E+02   2.665695582205691E+02
   2.662123178907254E+02   2.658512193743018E+02   2.654862253809575E+02
   2.651172984091355E+02   2.647444007490552E+02   2.643674944858562E+02
   2.639865415028922E+02   2.636015034851870E+02   2.632123419230475E+02
   2.628190181158421E+02   2.624214931759502E+02   2.620197280328799E+02
   2.616136834375685E+02   2.612033199668576E+02   2.607885980281571E+02
   2.603694778642968E+02   2.599459195585692E+02   2.595178830399751E+02
   2.590853280886652E+02   2.586482143415914E+02   2.582065012983675E+02
   2.577601483273439E+02   2.573091146719049E+02   2.568533594569874E+02
   2.563928416958294E+02   2.559275202969517E+02   2.554573540713763E+02
   2.549823017400919E+02   2.545023219417617E+02   2.540173732406870E+02
   2.535274141350270E+02   2.530324030652797E+02   2.525322984230318E+02
   2.520270585599798E+02   2.515166417972268E+02   2.510010064348628E+02
   2.504801107618296E+02   2.499539130660815E+02   2.494223716450383E+02
   2.488854448163437E+02   2.483430909289291E+02   2.477952683743875E+02
   2.472419355986702E+02   2.466830511140988E+02   2.461185735117087E+02
   2.455484614739233E+02   2.449726737875635E+02   2.443911693572036E+02
   2.438039072188697E+02   2.432108465540921E+02   2.426119467043144E+02
   2.420071671856622E+02   2.413964677040815E+02   2.407798081708447E+02
   2.401571487184336E+02   2.395284497168033E+02   2.388936717900272E+02
   2.382527758333366E+02   2.376057230305482E+02   2.369524748718920E+02
   2.362929931722392E+02   2.356272400897375E+02   2.349551781448513E+02
   2.342767702398216E+02   2.335919796785356E+02   2.329007701868204E+02
   2.322031059331580E+02   2.314989515498253E+02   2.307882721544667E+02
   2.300710333720939E+02   2.293472013575222E+02   2.286167428182417E+02
   2.278796250377268E+02   2.271358158991860E+02   2.263852839097527E+02
   2.256279982251171E+02   2.248639286746034E+02   2.240930457866880E+02
   2.233153208149655E+02   2.225307257645548E+02   2.217392334189514E+02
   2.209408173673214E+02   2.201354520322355E+02   2.193231126978472E+02
   2.185037755385044E+02   2.176774176477992E+02   2.168440170680503E+02
   2.160035528202125E+02   2.151560049342154E+02   2.143013544797214E+02
   2.134395835972996E+02   2.125706755300125E+02   2.116946146554056E+02
   2.108113865178992E+02   2.099209778615690E+02   2.090233766633117E+02
   2.081185721663864E+02   2.072065549143213E+02   2.062873167851807E+02
   2.053608510261753E+02   2.044271522886100E+02   2.034862166631550E+02
   2.025380417154273E+02   2.015826265218729E+02   2.006199717059298E+02
   1.996500794744618E+02   1.986729536544447E+02   1.976885997298879E+02
   1.966970248789781E+02   1.956982380114202E+02   1.946922498059610E+02
   1.936790727480739E+02   1.926587211677811E+02   1.916312112775970E+02
   1.905965612105625E+02   1.895547910583500E+02   1.885059229094141E+02
   1.874499808871577E+02   1.863869911880939E+02   1.853169821199645E+02
   1.842399841397951E+02   1.831560298918512E+02   1.820651542454626E+02
   1.809673943326882E+02   1.798627895857811E+02   1.787513817744223E+02
   1.776332150426855E+02   1.765083359456943E+02   1.753767934859360E+02
   1.742386391491885E+02   1.730939269400196E+02   1.719427134168190E+02
   1.707850577263149E+02   1.696210216375355E+02   1.684506695751644E+02
   1.672740686522453E+02   1.660912887021880E+02   1.649024023100223E+02
   1.637074848428568E+02   1.625066144794800E+02   1.612998722390603E+02
   1.600873420088855E+02   1.588691105710859E+02   1.576452676282906E+02
   1.564159058281518E+02   1.551811207866846E+02   1.539410111103599E+02
   1.526956784168914E+02   1.514452273546564E+02   1.501897656206860E+02
   1.489294039771640E+02   1.476642562663707E+02   1.463944394240056E+02
   1.451200734908285E+02   1.438412816225486E+02   1.425581900978987E+02
   1.412709283248287E+02   1.399796288447491E+02   1.386844273347619E+02
   1.373854626078076E+02   1.360828766106641E+02   1.347768144197303E+02
   1.334674242345249E+02   1.321548573688390E+02   1.308392682394705E+02
   1.295208143524781E+02   1.281996562868892E+02   1.268759576757945E+02
   1.255498851847712E+02   1.242216084875659E+02   1.228913002389789E+02
   1.215591360448898E+02   1.202252944293629E+02   1.188899567987790E+02
   1.175533074029332E+02   1.162155332930483E+02   1.148768242766506E+02
   1.135373728692576E+02   1.121973742428330E+02   1.108570261709608E+02
   1.095165289706990E+02   1.081760854410728E+02   1.068359007981694E+02
   1.054961826068071E+02   1.041571407087417E+02   1.028189871473902E+02
   1.014819360890476E+02   1.001462037405785E+02   9.881200826357183E+01
   9.747956968494604E+01   9.614910980400334E+01   9.482085209593109E+01
   9.349502161175468E+01   9.217184487475522E+01   9.085154977336333E+01
   8.953436545055274E+01   8.822052218975975E+01   8.691025129735989E+01
   8.560378498174269E+01   8.430135622902667E+01   8.300319867546668E+01
   8.170954647661189E+01   8.042063417327691E+01   7.913669655439865E+01
   7.785796851685556E+01   7.658468492233415E+01   7.531708045133520E+01
   7.405538945441793E+01   7.279984580078992E+01   7.155068272435430E+01
   7.030813266733676E+01   6.907242712162076E+01   6.784379646792553E+01
   6.662246981297247E+01   6.540867482478788E+01   6.420263756630258E+01
   6.300458232741246E+01   6.181473145567294E+01   6.063330518580854E+01
   5.946052146822259E+01   5.829659579670273E+01   5.714174103552246E+01
   5.599616724614571E+01   5.486008151375029E+01   5.373368777378783E+01
   5.261718663880825E+01   5.151077522578052E+01   5.041464698414605E+01
   4.932899152484917E+01   4.825399445059033E+01   4.718983718755482E+01
   4.613669681887325E+01   4.509474592007253E+01   4.406415239678168E+01
   4.304507932495699E+01   4.203768479389545E+01   4.104212175230639E+01
   4.005853785771212E+01   3.908707532945115E+01   3.812787080555474E+01
   3.718105520377006E+01   3.624675358700106E+01   3.532508503343620E+01
   3.441616251163182E+01   3.352009276081441E+01   3.263697617666459E+01
   3.176690670283923E+01   3.090997172848449E+01   3.006625199198719E+01
   2.923582149120469E+01   2.841874740040795E+01   2.761508999416411E+01
   2.682490257837646E+01   2.604823142869207E+01   2.528511573647541E+01
   2.453558756253818E+01   2.379967179880335E+01   2.307738613806952E+01
   2.236874105203050E+01   2.167373977769024E+01   2.099237831230121E+01
   2.032464541693887E+01   1.967052262881064E+01   1.902998428238203E+01
   1.840299753938653E+01   1.778952242776937E+01   1.718951188959856E+01
   1.660291183795832E+01   1.602966122282362E+01   1.546969210589410E+01
   1.492292974434938E+01   1.438929268346719E+01   1.386869285802741E+01
   1.336103570240574E+01   1.286622026924091E+01   1.238413935654003E+01
   1.191467964306730E+01   1.145772183184108E+01   1.101314080154572E+01
   1.058080576564407E+01   1.016058043895863E+01   9.752323211469323E+00
   9.355887329057921E+00   8.971121080910940E+00   8.597867993274413E+00
   8.235967029237580E+00   7.885252794205183E+00   7.545555746702256E+00
   7.216702414140130E+00   6.898515613157307E+00   6.590814674135646E+00
   6.293415669479070E+00   6.006131645230246E+00   5.728772855589817E+00
   5.461146999892617E+00   5.203059461587041E+00   4.954313548637105E+00
   4.714710735479912E+00   4.484050904848611E+00   4.262132590215725E+00
   4.048753217753998E+00   3.843709347460321E+00   3.646796912962323E+00
   3.457811459529077E+00   3.276548379810250E+00   3.102803146832844E+00
   2.936371543790546E+00   2.777049890168219E+00   2.624635263753154E+00
   2.478925718094915E+00   2.339720494987657E+00   2.206820231562029E+00
   2.080027161588444E+00   1.959145310609717E+00   1.843980684538339E+00
   1.734341451372585E+00   1.630038115705592E+00   1.530883685722775E+00
   1.436693832405494E+00   1.347287040682177E+00   1.262484752292931E+00
   1.182111500158966E+00   1.105995034074635E+00   1.033966437567116E+00
   9.658602357964651E-01   9.015144943973858E-01   8.407709091927634E-01
   7.834748867382725E-01   7.294756156868053E-01   6.786261289907164E-01
   6.307833569893281E-01   5.858081714580163E-01   5.435654207237601E-01
   5.039239559800119E-01   4.667566489607451E-01   4.319404011598168E-01
   3.993561448067188E-01   3.688888358335710E-01   3.404274390905807E-01
   3.138649060878965E-01   2.890981455609898E-01   2.660279871740030E-01
   2.445591386910466E-01   2.246001369590931E-01   2.060632930577705E-01
   1.888646319811630E-01   1.729238272244936E-01   1.581641306544339E-01
   1.445122980457566E-01   1.318985106691064E-01   1.202562933149765E-01
   1.095224291374979E-01   9.963687169852274E-02   9.054265458778717E-02
   8.218579898870484E-02   7.451521955175545E-02   6.748262892849267E-02
   6.104244130907190E-02   5.515167529496148E-02   4.976985642623864E-02
   4.485891966972618E-02   4.038311216025352E-02   3.630889647265745E-02
   3.260485468687037E-02   2.924159349265848E-02   2.619165056439566E-02
   2.342940241976287E-02   2.093097395955646E-02   1.867414986896572E-02
   1.663828804381813E-02   1.480423518849640E-02   1.315424471557132E-02
   1.167189706076253E-02   1.034202251070743E-02   9.150626625257612E-03
   8.084818320707593E-03   7.132740665547227E-03   6.283504426081684E-03
   5.527124385631620E-03   4.854458448055353E-03   4.257149524070905E-03
   3.727570187327298E-03   3.258770076414400E-03   2.844426009029263E-03
   2.478794765349544E-03   2.156668489313173E-03   1.873332648969267E-03
   1.624526490347813E-03   1.406405913386778E-03   1.215508693340989E-03
   1.048721966760817E-03   9.032518975459320E-04   7.765954357242539E-04
   6.665140794474616E-04   5.710095491974197E-04   4.883012823262355E-04
   4.168056557660494E-04   3.551168450020677E-04   3.019892281606967E-04
   2.563212452798002E-04   2.171406244559644E-04   1.835908885593691E-04
   1.549190585264256E-04   1.304644718402627E-04   1.096486376469423E-04
   9.196605299017860E-05   7.697590783989377E-05   6.429460990296601E-05
   5.358906360286491E-05   4.457064106560703E-05   3.698978642063602E-05
   3.063119821814960E-05   2.530953800905390E-05   2.086561737171120E-05
   1.716301652832186E-05   1.408509508724306E-05   1.153235499853536E-05
   9.420119421842728E-06   7.676495147982168E-06   6.240588454478811E-06
   5.060946789932322E-06   4.094201174957702E-06   3.303886511535741E-06
   2.659419150091550E-06   2.135213075307704E-06   1.709917939860052E-06
   1.365763903285555E-06   1.087999825321827E-06   8.644128243265213E-07
   6.849185474354305E-07   5.412127160738197E-07   4.264756147656472E-07
   3.351221895930909E-07   2.625913219726174E-07   2.051686504941673E-07
   1.598380352270711E-07   1.241574018174434E-07   9.615527339251490E-08
   7.424480302038593E-08   5.715256424935648E-08   4.385974776649016E-08
   3.355375384158980E-08   2.558846799108597E-08   1.945176588847322E-08
   1.473901729509552E-08   1.113155167076545E-08   8.379213790861875E-09
   6.286279458652880E-09   4.700122256265380E-09   3.502124922822823E-09
   2.600415799407086E-09   1.924083989717441E-09   1.418588360353747E-09
   1.042126928456080E-09   7.627760343903425E-10   5.562442640370515E-10
   4.041154913465322E-10   2.924796284275568E-10   2.108695340996326E-10
   1.514387597265113E-10   1.083280151865707E-10   7.717893771432009E-11
   5.476238135882851E-11   3.869538454480489E-11   2.722652719114633E-11
   1.907381500099106E-11   1.330274087950943E-11   9.234948642205943E-12
   6.380107432072041E-12   4.385315304257355E-12   2.997683903411902E-12
   2.036791331643203E-12   1.374490291908646E-12   9.201739794044599E-13
   6.100736371290465E-13   3.995196052746727E-13   2.573781292287651E-13
   1.620439505524262E-13   9.888170601023832E-14   5.663852471601399E-14
   0.000000000000000E+00   0.000000000000000E+00   0.000000000000000E+00
   0.000000000000000E+00   0.000000000000000E+00   0.000000000000000E+00
   0.000000000000000E+00   0.000000000000000E+00   0.000000000000000E+00
   0.000000000000000E+00   0.000000000000000E+00   0.000000000000000E+00
   0.000000000000000E+00   0.000000000000000E+00   0.000000000000000E+00
   0.000000000000000E+00   0.000000000000000E+00   0.000000000000000E+00
   0.000000000000000E+00   0.000000000000000E+00   0.000000000000000E+00
   0.000000000000000E+00   0.000000000000000E+00   0.000000000000000E+00
   0.000000000000000E+00   0.000000000000000E+00   0.000000000000000E+00
   0.000000000000000E+00   0.000000000000000E+00   0.000000000000000E+00
   0.000000000000000E+00   0.000000000000000E+00   0.000000000000000E+00
   0.000000000000000E+00   0.000000000000000E+00   0.000000000000000E+00
   0.000000000000000E+00   0.000000000000000E+00   0.000000000000000E+00
   0.000000000000000E+00   0.000000000000000E+00   0.000000000000000E+00
   0.000000000000000E+00   0.000000000000000E+00   0.000000000000000E+00
   0.000000000000000E+00   0.000000000000000E+00   0.000000000000000E+00
   0.000000000000000E+00   0.000000000000000E+00   0.000000000000000E+00
   0.000000000000000E+00   0.000000000000000E+00   0.000000000000000E+00
   0.000000000000000E+00   0.000000000000000E+00   0.000000000000000E+00
   0.000000000000000E+00   0.000000000000000E+00   0.000000000000000E+00
   0.000000000000000E+00   0.000000000000000E+00   0.000000000000000E+00
   0.000000000000000E+00   0.000000000000000E+00   0.000000000000000E+00
   0.000000000000000E+00   0.000000000000000E+00   0.000000000000000E+00
   0.000000000000000E+00   0.000000000000000E+00   0.000000000000000E+00
   0.000000000000000E+00   0.000000000000000E+00   0.000000000000000E+00
   0.000000000000000E+00   0.000000000000000E+00   0.000000000000000E+00
   0.000000000000000E+00   0.000000000000000E+00   0.000000000000000E+00
   0.000000000000000E+00   0.000000000000000E+00   0.000000000000000E+00
   0.000000000000000E+00   0.000000000000000E+00   0.000000000000000E+00
   0.000000000000000E+00   0.000000000000000E+00   0.000000000000000E+00
   0.000000000000000E+00   0.000000000000000E+00   0.000000000000000E+00
   0.000000000000000E+00   0.000000000000000E+00   0.000000000000000E+00
   0.000000000000000E+00   0.000000000000000E+00   0.000000000000000E+00
   0.000000000000000E+00   0.000000000000000E+00   0.000000000000000E+00
   0.000000000000000E+00   0.000000000000000E+00   0.000000000000000E+00
   0.000000000000000E+00   0.000000000000000E+00   0.000000000000000E+00
   0.000000000000000E+00   0.000000000000000E+00   0.000000000000000E+00
   0.000000000000000E+00   0.000000000000000E+00   0.000000000000000E+00
   0.000000000000000E+00   0.000000000000000E+00   0.000000000000000E+00
   0.000000000000000E+00   0.000000000000000E+00   0.000000000000000E+00
   0.000000000000000E+00   0.000000000000000E+00   0.000000000000000E+00
   0.000000000000000E+00   0.000000000000000E+00   0.000000000000000E+00
   0.000000000000000E+00   0.000000000000000E+00   0.000000000000000E+00
   0.000000000000000E+00   0.000000000000000E+00   0.000000000000000E+00
   0.000000000000000E+00   0.000000000000000E+00   0.000000000000000E+00
   0.000000000000000E+00   0.000000000000000E+00   0.000000000000000E+00
   0.000000000000000E+00   0.000000000000000E+00   0.000000000000000E+00
   0.000000000000000E+00   0.000000000000000E+00   0.000000000000000E+00
   0.000000000000000E+00   0.000000000000000E+00   0.000000000000000E+00
   0.000000000000000E+00   0.000000000000000E+00   0.000000000000000E+00
   0.000000000000000E+00   0.000000000000000E+00   0.000000000000000E+00
   0.000000000000000E+00   0.000000000000000E+00   0.000000000000000E+00
   0.000000000000000E+00   0.000000000000000E+00   0.000000000000000E+00
   0.000000000000000E+00   0.000000000000000E+00   0.000000000000000E+00
   0.000000000000000E+00   0.000000000000000E+00   0.000000000000000E+00
   0.000000000000000E+00   0.000000000000000E+00   0.000000000000000E+00
   0.000000000000000E+00   0.000000000000000E+00   0.000000000000000E+00
   0.000000000000000E+00   0.000000000000000E+00   0.000000000000000E+00
   0.000000000000000E+00   0.000000000000000E+00   0.000000000000000E+00
   0.000000000000000E+00   0.000000000000000E+00   0.000000000000000E+00
   0.000000000000000E+00   0.000000000000000E+00   0.000000000000000E+00
   0.000000000000000E+00   0.000000000000000E+00   0.000000000000000E+00
   0.000000000000000E+00   0.000000000000000E+00   0.000000000000000E+00
   0.000000000000000E+00   0.000000000000000E+00   0.000000000000000E+00
   0.000000000000000E+00   0.000000000000000E+00   0.000000000000000E+00
   0.000000000000000E+00   0.000000000000000E+00   0.000000000000000E+00
   0.000000000000000E+00   0.000000000000000E+00   0.000000000000000E+00
   0.000000000000000E+00   0.000000000000000E+00   0.000000000000000E+00
   0.000000000000000E+00   0.000000000000000E+00   0.000000000000000E+00
   0.000000000000000E+00   0.000000000000000E+00   0.000000000000000E+00
   0.000000000000000E+00   0.000000000000000E+00   0.000000000000000E+00
   0.000000000000000E+00   0.000000000000000E+00   0.000000000000000E+00
   0.000000000000000E+00   0.000000000000000E+00   0.000000000000000E+00
   0.000000000000000E+00   0.000000000000000E+00   0.000000000000000E+00
   0.000000000000000E+00   0.000000000000000E+00   0.000000000000000E+00
   0.000000000000000E+00   0.000000000000000E+00   0.000000000000000E+00
   0.000000000000000E+00   0.000000000000000E+00   0.000000000000000E+00
   0.000000000000000E+00   0.000000000000000E+00   0.000000000000000E+00
   0.000000000000000E+00   0.000000000000000E+00   0.000000000000000E+00
   0.000000000000000E+00   0.000000000000000E+00   0.000000000000000E+00
   0.000000000000000E+00   0.000000000000000E+00   0.000000000000000E+00
   0.000000000000000E+00   0.000000000000000E+00   0.000000000000000E+00
   0.000000000000000E+00   0.000000000000000E+00   0.000000000000000E+00
   0.000000000000000E+00   0.000000000000000E+00   0.000000000000000E+00
   0.000000000000000E+00   0.000000000000000E+00   0.000000000000000E+00
   0.000000000000000E+00   0.000000000000000E+00   0.000000000000000E+00
   0.000000000000000E+00   0.000000000000000E+00   0.000000000000000E+00
   0.000000000000000E+00   0.000000000000000E+00   0.000000000000000E+00
   0.000000000000000E+00   0.000000000000000E+00   0.000000000000000E+00
   0.000000000000000E+00   0.000000000000000E+00   0.000000000000000E+00
   0.000000000000000E+00   0.000000000000000E+00   0.000000000000000E+00
   0.000000000000000E+00   0.000000000000000E+00   0.000000000000000E+00
   0.000000000000000E+00   0.000000000000000E+00   0.000000000000000E+00
   0.000000000000000E+00   0.000000000000000E+00   0.000000000000000E+00
   0.000000000000000E+00   0.000000000000000E+00   0.000000000000000E+00
   0.000000000000000E+00   0.000000000000000E+00   0.000000000000000E+00
   0.000000000000000E+00   0.000000000000000E+00   0.000000000000000E+00
    </PP_AE_NLCC>
    <PP_AE_VLOC size="1095">
  -1.403386714408465E+05  -1.385949791687415E+05  -1.368729473899332E+05
  -1.351723070334536E+05  -1.334927923707860E+05  -1.318341409743489E+05
  -1.301960936764863E+05  -1.285783945289753E+05  -1.269807907630345E+05
  -1.254030327498239E+05  -1.238448739614451E+05  -1.223060709324170E+05
  -1.207863832216358E+05  -1.192855733748056E+05  -1.178034068873342E+05
  -1.163396521676931E+05  -1.148940805012292E+05  -1.134664660144294E+05
  -1.120565856396256E+05  -1.106642190801411E+05  -1.092891487758681E+05
  -1.079311598692753E+05  -1.065900401718323E+05  -1.052655801308592E+05
  -1.039575727967795E+05  -1.026658137907869E+05  -1.013901012729086E+05
  -1.001302359104690E+05  -9.888602084694221E+04  -9.765726167119356E+04
  -9.644376638710199E+04  -9.524534538356139E+04  -9.406181140485201E+04
  -9.289297952138187E+04  -9.173866710079189E+04  -9.059869377941838E+04
  -8.947288143411062E+04  -8.836105415440019E+04  -8.726303821501262E+04
  -8.617866204872393E+04  -8.510775621955306E+04  -8.405015339628518E+04
  -8.300568832632821E+04  -8.197419780989097E+04  -8.095552067448152E+04
  -7.994949774972575E+04  -7.895597184249587E+04  -7.797478771234771E+04
  -7.700579204726568E+04  -7.604883343970557E+04  -7.510376236293907E+04
  -7.417043114768830E+04  -7.324869395905301E+04  -7.233840677372250E+04
  -7.143942735747287E+04  -7.055161524294197E+04  -6.967483170768149E+04
  -6.880893975248068E+04  -6.795380407996118E+04  -6.710929107343478E+04
  -6.627526877602674E+04  -6.545160687005745E+04  -6.463817665667905E+04
  -6.383485103576673E+04  -6.304150448605847E+04  -6.225801304554276E+04
  -6.148425429208929E+04  -6.072010732431928E+04  -5.996545274271545E+04
  -5.922017263096509E+04  -5.848415053753545E+04  -5.775727145747805E+04
  -5.703942181445887E+04  -5.633048944301211E+04  -5.563036357101311E+04
  -5.493893480237143E+04  -5.425609509993620E+04  -5.358173776861613E+04
  -5.291575743870749E+04  -5.225805004942998E+04  -5.160851283266717E+04
  -5.096704429690940E+04  -5.033354421139324E+04  -4.970791359044403E+04
  -4.909005467800503E+04  -4.847987093236584E+04  -4.787726701107666E+04
  -4.728214875605002E+04  -4.669442317884968E+04  -4.611399844615986E+04
  -4.554078386543721E+04  -4.497468987073874E+04  -4.441562800872800E+04
  -4.386351092485362E+04  -4.331825234969977E+04  -4.277976708550649E+04
  -4.224797099285777E+04  -4.172278097753438E+04  -4.120411497752999E+04
  -4.069189195022873E+04  -4.018603185974298E+04  -3.968645566440649E+04
  -3.919308530442467E+04  -3.870584368967763E+04  -3.822465468767381E+04
  -3.774944311165534E+04  -3.728013470884920E+04  -3.681665614886514E+04
  -3.635893501223799E+04  -3.590689977911165E+04  -3.546047981806410E+04
  -3.501960537507106E+04  -3.458420756260658E+04  -3.415421834888010E+04
  -3.372957054720513E+04  -3.331019780550162E+04  -3.289603459592886E+04
  -3.248701620464632E+04  -3.208307872170144E+04  -3.168415903104415E+04
  -3.129019480066490E+04  -3.090112447285485E+04  -3.051688725458745E+04
  -3.013742310801960E+04  -2.976267274111020E+04  -2.939257759835615E+04
  -2.902707985164270E+04  -2.866612239120744E+04  -2.830964881671735E+04
  -2.795760342845565E+04  -2.760993121861870E+04  -2.726657786272110E+04
  -2.692748971110749E+04  -2.659261378056910E+04  -2.626189774606567E+04
  -2.593528993254905E+04  -2.561273930688950E+04  -2.529419546990075E+04
  -2.497960864846587E+04  -2.466892968775989E+04  -2.436211004356897E+04
  -2.405910177470548E+04  -2.375985753551728E+04  -2.346433056848947E+04
  -2.317247469693865E+04  -2.288424431779793E+04  -2.259959439449098E+04
  -2.231848044989521E+04  -2.204085855939193E+04  -2.176668534400356E+04
  -2.149591796361474E+04  -2.122851411027914E+04  -2.096443200160877E+04
  -2.070363037424500E+04  -2.044606847741118E+04  -2.019170606654559E+04
  -1.994050339701277E+04  -1.969242121789349E+04  -1.944742076585189E+04
  -1.920546375907821E+04  -1.896651239130759E+04  -1.873052932591259E+04
  -1.849747769006939E+04  -1.826732106899605E+04  -1.804002350026307E+04
  -1.781554946817381E+04  -1.759386389821529E+04  -1.737493215157768E+04
  -1.715872001974196E+04  -1.694519371913477E+04  -1.673431988584951E+04
  -1.652606557043357E+04  -1.632039823273927E+04  -1.611728573684019E+04
  -1.591669634600914E+04  -1.571859871775988E+04  -1.552296189894917E+04
  -1.532975532094080E+04  -1.513894879482904E+04  -1.495051250672129E+04
  -1.476441701308013E+04  -1.458063323612224E+04  -1.439913245927519E+04
  -1.421988632269043E+04  -1.404286681881190E+04  -1.386804628799980E+04
  -1.369539741420897E+04  -1.352489322072041E+04  -1.335650706592619E+04
  -1.319021263916688E+04  -1.302598395662016E+04  -1.286379535724098E+04
  -1.270362149875202E+04  -1.254543735368379E+04  -1.238921820546402E+04
  -1.223493964455601E+04  -1.208257756464401E+04  -1.193210815886715E+04
  -1.178350791609925E+04  -1.163675361727523E+04  -1.149182233176324E+04
  -1.134869141378147E+04  -1.120733849885988E+04  -1.106774150034585E+04
  -1.092987860595272E+04  -1.079372827435206E+04  -1.065926923180739E+04
  -1.052648046885043E+04  -1.039534123699828E+04  -1.026583104551117E+04
  -1.013792965819137E+04  -1.001161709022048E+04  -9.886873605037552E+03
  -9.763679711254583E+03  -9.642016159611452E+03  -9.521863939967883E+03
  -9.403204278333247E+03  -9.286018633933119E+03  -9.170288696312180E+03
  -9.055996382473208E+03  -8.943123834051792E+03  -8.831653414525508E+03
  -8.721567706458778E+03  -8.612849508780904E+03  -8.505481834098588E+03
  -8.399447906041743E+03  -8.294731156641938E+03  -8.191315223743886E+03
  -8.089183948448640E+03  -7.988321372588950E+03  -7.888711736235690E+03
  -7.790339475235335E+03  -7.693189218778167E+03  -7.597245786996587E+03
  -7.502494188593073E+03  -7.408919618498086E+03  -7.316507455556522E+03
  -7.225243260243294E+03  -7.135112772407178E+03  -7.046101909042523E+03
  -6.958196762089049E+03  -6.871383596258470E+03  -6.785648846888500E+03
  -6.700979117823304E+03  -6.617361179320549E+03  -6.534781965984009E+03
  -6.453228574722254E+03  -6.372688262732600E+03  -6.293148445510025E+03
  -6.214596694880812E+03  -6.137020737060692E+03  -6.060408450737127E+03
  -5.984747865175345E+03  -5.910027158347992E+03  -5.836234655087866E+03
  -5.763358825263806E+03  -5.691388281979049E+03  -5.620311779792173E+03
  -5.550118212959886E+03  -5.480796613701930E+03  -5.412336150487286E+03
  -5.344726126341879E+03  -5.277955977177158E+03  -5.212015270139525E+03
  -5.146893701980201E+03  -5.082581097445438E+03  -5.019067407686727E+03
  -4.956342708690556E+03  -4.894397199728011E+03  -4.833221201823329E+03
  -4.772805156241701E+03  -4.713139622995737E+03  -4.654215279370523E+03
  -4.596022918467016E+03  -4.538553447763532E+03  -4.481797887695081E+03
  -4.425747370250393E+03  -4.370393137586409E+03  -4.315726540659810E+03
  -4.261739037875797E+03  -4.208422193753484E+03  -4.155767677607934E+03
  -4.103767262248597E+03  -4.052412822693841E+03  -4.001696334901564E+03
  -3.951609874515487E+03  -3.902145615627048E+03  -3.853295829552750E+03
  -3.805052883626577E+03  -3.757409240007532E+03  -3.710357454501937E+03
  -3.663890175400380E+03  -3.618000142329068E+03  -3.572680185115599E+03
  -3.527923222668613E+03  -3.483722261871552E+03  -3.440070396490114E+03
  -3.396960806093193E+03  -3.354386754987380E+03  -3.312341591164597E+03
  -3.270818745262861E+03  -3.229811729539917E+03  -3.189314136859711E+03
  -3.149319639691354E+03  -3.109821989120622E+03  -3.070815013873671E+03
  -3.032292619352966E+03  -2.994248786685076E+03  -2.956677571780454E+03
  -2.919573104404751E+03  -2.882929587261806E+03  -2.846741295087918E+03
  -2.811002573757521E+03  -2.775707839399815E+03  -2.740851577526488E+03
  -2.706428342170250E+03  -2.672432755034073E+03  -2.638859504651021E+03
  -2.605703345554497E+03  -2.572959097458864E+03  -2.540621644450173E+03
  -2.508685934187041E+03  -2.477146977111373E+03  -2.445999845669000E+03
  -2.415239673539922E+03  -2.384861654878143E+03  -2.354861043561043E+03
  -2.325233152447925E+03  -2.295973352647943E+03  -2.267077072797023E+03
  -2.238539798343856E+03  -2.210357070844677E+03  -2.182524487266966E+03
  -2.155037699301638E+03  -2.127892412683892E+03  -2.101084386522503E+03
  -2.074609432637417E+03  -2.048463414905646E+03  -2.022642248615208E+03
  -1.997141899827240E+03  -1.971958384745886E+03  -1.947087769096185E+03
  -1.922526167509565E+03  -1.898269742917108E+03  -1.874314705950234E+03
  -1.850657314348948E+03  -1.827293872377429E+03  -1.804220730246843E+03
  -1.781434283545414E+03  -1.758930972675511E+03  -1.736707282297826E+03
  -1.714759740782397E+03  -1.693084919666514E+03  -1.671679433119344E+03
  -1.650539937413267E+03  -1.629663130401711E+03  -1.609045751003593E+03
  -1.588684578694094E+03  -1.568576433001842E+03  -1.548718173012290E+03
  -1.529106696877337E+03  -1.509738941331039E+03  -1.490611881211347E+03
  -1.471722528987792E+03  -1.453067934295085E+03  -1.434645183472496E+03
  -1.416451399109002E+03  -1.398483739594075E+03  -1.380739398674086E+03
  -1.363215605014233E+03  -1.345909621765911E+03  -1.328818746139523E+03
  -1.311940308982543E+03  -1.295271674362907E+03  -1.278810239157556E+03
  -1.262553432646119E+03  -1.246498716109665E+03  -1.230643582434462E+03
  -1.214985555720665E+03  -1.199522190895881E+03  -1.184251073333563E+03
  -1.169169818476179E+03  -1.154276071463025E+03  -1.139567506762752E+03
  -1.125041827810409E+03  -1.110696766649062E+03  -1.096530083575859E+03
  -1.082539566792515E+03  -1.068723032060152E+03  -1.055078322358451E+03
  -1.041603307549065E+03  -1.028295884043196E+03  -1.015153974473360E+03
  -1.002175527369216E+03  -9.893585168374650E+02  -9.767009422457110E+02
  -9.642008279102894E+02  -9.518562227879835E+02  -9.396652001715796E+02
  -9.276258573892294E+02  -9.157363155075462E+02  -9.039947190384186E+02
  -8.923992356494899E+02  -8.809480558782107E+02  -8.696393928494819E+02
  -8.584714819968297E+02  -8.474425807870294E+02  -8.365509684481797E+02
  -8.257949457011445E+02  -8.151728344943799E+02  -8.046829777420172E+02
  -7.943237390652409E+02  -7.840935025368811E+02  -7.739906724291666E+02
  -7.640136729646567E+02  -7.541609480702231E+02  -7.444309611341315E+02
  -7.348221947661262E+02  -7.253331505605007E+02  -7.159623488621121E+02
  -7.067083285353025E+02  -6.975696467356871E+02  -6.885448786847838E+02
  -6.796326174474223E+02  -6.708314737119309E+02  -6.621400755730330E+02
  -6.535570683174404E+02  -6.450811142121044E+02  -6.367108922950649E+02
  -6.284450981689184E+02  -6.202824437968052E+02  -6.122216573009327E+02
  -6.042614827635767E+02  -5.964006800305415E+02  -5.886380245170297E+02
  -5.809723070159059E+02  -5.734023335083097E+02  -5.659269249766099E+02
  -5.585449172196264E+02  -5.512551606701328E+02  -5.440565202145914E+02
  -5.369478750150720E+02  -5.299281183333673E+02  -5.229961573572298E+02
  -5.161509130287320E+02  -5.093913198747133E+02  -5.027163258392649E+02
  -4.961248921182735E+02  -4.896159929959234E+02  -4.831886156832077E+02
  -4.768417601583523E+02  -4.705744390091809E+02  -4.643856772773463E+02
  -4.582745123044418E+02  -4.522399935799390E+02  -4.462811825909365E+02
  -4.403971526736909E+02  -4.345869888669079E+02  -4.288497877667717E+02
  -4.231846573836563E+02  -4.175907170005507E+02  -4.120670970331210E+02
  -4.066129388914086E+02  -4.012273948431412E+02  -3.959096278786216E+02
  -3.906588115771790E+02  -3.854741299751610E+02  -3.803547774354328E+02
  -3.752999585183664E+02  -3.703088878543094E+02  -3.653807900174777E+02
  -3.605148994012927E+02  -3.557104600950980E+02  -3.509667257622748E+02
  -3.462829595196974E+02  -3.416584338185351E+02  -3.370924303263600E+02
  -3.325842398105592E+02  -3.281331620230058E+02  -3.237385055859953E+02
  -3.193995878794102E+02  -3.151157349290881E+02  -3.108862812964016E+02
  -3.067105699689932E+02  -3.025879522526784E+02  -2.985177876644760E+02
  -2.944994438267622E+02  -2.905322963625186E+02  -2.866157287916705E+02
  -2.827491324284763E+02  -2.789319062799798E+02  -2.751634569454782E+02
  -2.714431985170096E+02  -2.677705524808409E+02  -2.641449476199321E+02
  -2.605658199173667E+02  -2.570326124607341E+02  -2.535447753474495E+02
  -2.501017655909914E+02  -2.467030470280445E+02  -2.433480902265448E+02
  -2.400363723945944E+02  -2.367673772902495E+02  -2.335405951321607E+02
  -2.303555225110563E+02  -2.272116623020579E+02  -2.241085235778100E+02
  -2.210456215224279E+02  -2.180224773462355E+02  -2.150386182012932E+02
  -2.120935770977106E+02  -2.091868928207220E+02  -2.063181098485276E+02
  -2.034867782708919E+02  -2.006924537084822E+02  -1.979346972329488E+02
  -1.952130752877422E+02  -1.925271596096561E+02  -1.898765271510896E+02
  -1.872607600030314E+02  -1.846794453187549E+02  -1.821321752382253E+02
  -1.796185468132120E+02  -1.771381619331051E+02  -1.746906272514392E+02
  -1.722755541131104E+02  -1.698925584823030E+02  -1.675412608711102E+02
  -1.652212862688618E+02  -1.629322640721480E+02  -1.606738280155536E+02
  -1.584456161030956E+02  -1.562472705403700E+02  -1.540784376674121E+02
  -1.519387678922776E+02  -1.498279156253380E+02  -1.477455392143103E+02
  -1.456913008800169E+02  -1.436648666528845E+02  -1.416659063101925E+02
  -1.396940933140705E+02  -1.377491047502638E+02  -1.358306212676642E+02
  -1.339383270186265E+02  -1.320719096000698E+02  -1.302310599953794E+02
  -1.284154725171212E+02  -1.266248447505749E+02  -1.248588774980990E+02
  -1.231172747243434E+02  -1.213997435023130E+02  -1.197059939603047E+02
  -1.180357392297199E+02  -1.163886953937797E+02  -1.147645814371362E+02
  -1.131631191964115E+02  -1.115840333116717E+02  -1.100270511788387E+02
  -1.084919029030750E+02  -1.069783212531334E+02  -1.054860416166990E+02
  -1.040148019567312E+02  -1.025643427688196E+02  -1.011344070395701E+02
  -9.972474020602719E+01  -9.833509011615303E+01  -9.696520699036931E+01
  -9.561484338417756E+01  -9.428375415186598E+01  -9.297169641131747E+01
  -9.167842950992298E+01  -9.040371499161829E+01  -8.914731656504475E+01
  -8.790900007284648E+01  -8.668853346211051E+01  -8.548568675595453E+01
  -8.430023202627186E+01  -8.313194336763070E+01  -8.198059687233845E+01
  -8.084597060666857E+01  -7.972784458825186E+01  -7.862600076463234E+01
  -7.754022299298521E+01  -7.647029702099488E+01  -7.541601046888596E+01
  -7.437715281260621E+01  -7.335351536814723E+01  -7.234489127699844E+01
  -7.135107549272450E+01  -7.037186476864768E+01  -6.940705764662779E+01
  -6.845645444692028E+01  -6.751985725909549E+01  -6.659706993399996E+01
  -6.568789807673861E+01  -6.479214904065566E+01  -6.390963192228550E+01
  -6.304015755725551E+01  -6.218353851710136E+01  -6.133958910697373E+01
  -6.050812536420081E+01  -5.968896505767031E+01  -5.888192768800254E+01
  -5.808683448846929E+01  -5.730350842662464E+01  -5.653177420660757E+01
  -5.577145827207050E+01  -5.502238880969480E+01  -5.428439575324475E+01
  -5.355731078811628E+01  -5.284096735633182E+01  -5.213520066193197E+01
  -5.143984767671709E+01  -5.075474714628363E+01  -5.007973959630959E+01
  -4.941466733903067E+01  -4.875937447985859E+01  -4.811370692408802E+01
  -4.747751238363594E+01  -4.685064038376242E+01  -4.623294226971714E+01
  -4.562427121326000E+01  -4.502448221899998E+01  -4.443343213050060E+01
  -4.385097963609989E+01  -4.327698527439249E+01  -4.271131143932321E+01
  -4.215382238484322E+01  -4.160438422907868E+01  -4.106286495796733E+01
  -4.052913442831493E+01  -4.000306437022999E+01  -3.948452838889374E+01
  -3.897340196562574E+01  -3.846956245820867E+01  -3.797288910043432E+01
  -3.748326300084211E+01  -3.700056714061549E+01  -3.652468637061180E+01
  -3.605550740750022E+01  -3.559291882898535E+01  -3.513681106809764E+01
  -3.468707640653695E+01  -3.424360896705373E+01  -3.380630470486158E+01
  -3.337506139807228E+01  -3.294977863715290E+01  -3.253035781340453E+01
  -3.211670210646565E+01  -3.170871647084890E+01  -3.130630762152040E+01
  -3.090938401853458E+01  -3.051785585074337E+01  -3.013163501859605E+01
  -2.975063511605591E+01  -2.937477141165664E+01  -2.900396082872708E+01
  -2.863812192481659E+01  -2.827717487035231E+01  -2.792104142656509E+01
  -2.756964492272202E+01  -2.722291023270386E+01  -2.688076375097081E+01
  -2.654313336795799E+01  -2.620994844494670E+01  -2.588113978845641E+01
  -2.555663962420403E+01  -2.523638157067986E+01  -2.492030061238601E+01
  -2.460833307278837E+01  -2.430041658703024E+01  -2.399649007445572E+01
  -2.369649371099381E+01  -2.340036890144971E+01  -2.310805825175201E+01
  -2.281950554120418E+01  -2.253465569478409E+01  -2.225345475553944E+01
  -2.197584985712121E+01  -2.170178919649875E+01  -2.143122200689731E+01
  -2.116409853099696E+01  -2.090036999443118E+01  -2.063998857962031E+01
  -2.038290739997380E+01  -2.012908047449277E+01  -1.987846270280225E+01
  -1.963100984064047E+01  -1.938667847582988E+01  -1.914542600475284E+01
  -1.890721060935255E+01  -1.867199123467579E+01  -1.843972756697521E+01
  -1.821038001238266E+01  -1.798390967616556E+01  -1.776027834257474E+01
  -1.753944845529028E+01  -1.732138309847010E+01  -1.710604597840278E+01
  -1.689340140576593E+01  -1.668341427848805E+01  -1.647605006520995E+01
  -1.627127478934171E+01  -1.606905501370720E+01  -1.586935782576870E+01
  -1.567215082342180E+01  -1.547740210134889E+01  -1.528508023792050E+01
  -1.509515428262971E+01  -1.490759374404683E+01  -1.472236857827886E+01
  -1.453944917791789E+01  -1.435880636146303E+01  -1.418041136319841E+01
  -1.400423582351081E+01  -1.383025177962954E+01  -1.365843165677093E+01
  -1.348874825967053E+01  -1.332117476448478E+01  -1.315568471104583E+01
  -1.299225199545156E+01  -1.283085086297416E+01  -1.267145590127135E+01
  -1.251404203388286E+01  -1.235858451399769E+01  -1.220505891847624E+01
  -1.205344114211238E+01  -1.190370739212194E+01  -1.175583418284328E+01
  -1.160979833063743E+01  -1.146557694897503E+01  -1.132314744369820E+01
  -1.118248750844649E+01  -1.104357512023565E+01  -1.090638853517997E+01
  -1.077090628434811E+01  -1.063710716969340E+01  -1.050497026031825E+01
  -1.037447488864530E+01  -1.024560064616868E+01  -1.011832738087003E+01
  -9.992635192928986E+00  -9.868504431583887E+00  -9.745915691746767E+00
  -9.624849810730744E+00  -9.505287865046355E+00  -9.387211167262514E+00
  -9.270601262929008E+00  -9.155439927556399E+00  -9.041709163650946E+00
  -8.929391197801435E+00  -8.818468477815202E+00  -8.708923669901635E+00
  -8.600739655900366E+00  -8.493899530552770E+00  -8.388386598814984E+00
  -8.284184373210488E+00  -8.181276571221590E+00  -8.079647112717694E+00
  -7.979280117419922E+00  -7.880159902400575E+00  -7.782270979616577E+00
  -7.685598053476332E+00  -7.590126018438488E+00  -7.495839956623188E+00
  -7.402725135504040E+00  -7.310767005632440E+00  -7.219951198284492E+00
  -7.130263523242986E+00  -7.041689966576927E+00  -6.954216688449064E+00
  -6.867830020951209E+00  -6.782516465966935E+00  -6.698262693060943E+00
  -6.615055537395131E+00  -6.532881997670620E+00  -6.451729234095568E+00
  -6.371584566378430E+00  -6.292435471746108E+00  -6.214269582986992E+00
  -6.137074686518202E+00  -6.060838720477047E+00  -5.985549772836192E+00
  -5.911196079542168E+00  -5.837766022677232E+00  -5.765248128643894E+00
  -5.693631066372112E+00  -5.622903645548797E+00  -5.553054814869197E+00
  -5.484073660310166E+00  -5.415949403424752E+00  -5.348671399658043E+00
  -5.282229136683982E+00  -5.216612232762709E+00  -5.151810435118469E+00
  -5.087813618337520E+00  -5.024611782786069E+00  -4.962195053047807E+00
  -4.900553676380804E+00  -4.839678021193714E+00  -4.779558575540731E+00
  -4.720185945635367E+00  -4.661550854382686E+00  -4.603644139929666E+00
  -4.546456754233733E+00  -4.489979761648896E+00  -4.434204337529582E+00
  -4.379121766851791E+00  -4.324723442851291E+00  -4.271000865678857E+00
  -4.217945641072105E+00  -4.165549479043884E+00  -4.113804192586980E+00
  -4.062701696394813E+00  -4.012234005598176E+00  -3.962393234517497E+00
  -3.913171595430727E+00  -3.864561397356507E+00  -3.816555044852388E+00
  -3.769145036828081E+00  -3.722323965373346E+00  -3.676084514600504E+00
  -3.630419459501349E+00  -3.585321664818156E+00  -3.540784083928858E+00
  -3.496799757745925E+00  -3.453361813629027E+00  -3.410463464311185E+00
  -3.368098006838194E+00  -3.326258821521329E+00  -3.284939370902953E+00
  -3.244133198735048E+00  -3.203833928970432E+00  -3.164035264766439E+00
  -3.124730987501072E+00  -3.085914955801294E+00  -3.047581104583433E+00
  -3.009723444105530E+00  -2.972336059031370E+00  -2.935413107506261E+00
  -2.898948820244184E+00  -2.862937499626339E+00  -2.827373518810914E+00
  -2.792251320853826E+00  -2.757565417840482E+00  -2.723310390028253E+00
  -2.689480884999627E+00  -2.656071616825913E+00  -2.623077365241262E+00
  -2.590492974827026E+00  -2.558313354206187E+00  -2.526533475247822E+00
  -2.495148372281475E+00  -2.464153141321215E+00  -2.433542939299426E+00
  -2.403312983310026E+00  -2.373458549861147E+00  -2.343974974137095E+00
  -2.314857649269427E+00  -2.286102025617158E+00  -2.257703610055834E+00
  -2.229657965275491E+00  -2.201960709087326E+00  -2.174607513738944E+00
  -2.147594105238166E+00  -2.120916262685188E+00  -2.094569817613057E+00
  -2.068550653336366E+00  -2.042854704307973E+00  -2.017477955483794E+00
  -1.992416441695402E+00  -1.967666247030487E+00  -1.943223504220991E+00
  -1.919084394038811E+00  -1.895245144699075E+00  -1.871702031270754E+00
  -1.848451375094657E+00  -1.825489543208637E+00  -1.802812947779907E+00
  -1.780418045544468E+00  -1.758301337253436E+00  -1.736459367126288E+00
  -1.714888722310905E+00  -1.693586032350274E+00  -1.672547968655883E+00
  -1.651771243987589E+00  -1.631252611940000E+00  -1.610988866435219E+00
  -1.590976841221869E+00  -1.571213409380385E+00  -1.551695482834403E+00
  -1.532420011868251E+00  -1.513383984650436E+00  -1.494584426763016E+00
  -1.476018400736866E+00  -1.457683005592669E+00  -1.439575376387647E+00
  -1.421692683767910E+00  -1.404032133526350E+00  -1.386590966166058E+00
  -1.369366456469129E+00  -1.352355913070854E+00  -1.335556678039191E+00
  -1.318966126459443E+00  -1.302581666024130E+00  -1.286400736627918E+00
  -1.270420809967605E+00  -1.254639389147082E+00  -1.239054008287148E+00
  -1.223662233364282E+00  -1.208461656826091E+00  -1.193449904891826E+00
  -1.178624633540664E+00  -1.163983522962830E+00  -1.149524287198418E+00
  -1.135244666961242E+00  -1.121142431030458E+00  -1.107215375901938E+00
  -1.093461325443952E+00  -1.079878130557158E+00  -1.066463668838790E+00
  -1.053215844251011E+00  -1.040132583040264E+00  -1.027211848738516E+00
  -1.014451618365983E+00  -1.001849898111316E+00  -9.894047189306769E-01
  -9.771141362400797E-01  -9.649762296115267E-01  -9.529891024729574E-01
  -9.411508818118883E-01  -9.294597189844171E-01  -9.179137849226700E-01
  -9.065112767573041E-01  -8.952504128232237E-01  -8.841294335875279E-01
  -8.731466013745840E-01  -8.623002000945178E-01  -8.515885349750598E-01
  -8.410099322967461E-01  -8.305627391313842E-01  -8.202453230837866E-01
  -8.100560720367085E-01  -7.999933938989413E-01  -7.900557163565567E-01
  -7.802414866272195E-01  -7.705491712175665E-01  -7.609772556835988E-01
  -7.515242443940385E-01  -7.421886602966423E-01  -7.329690446874008E-01
  -7.238639569826163E-01  -7.148719744938146E-01  -7.059916922054346E-01
  -6.972217225553052E-01  -6.885606952178250E-01  -6.800072568898504E-01
  -6.715600710792442E-01  -6.632178178970185E-01  -6.549791938470900E-01
  -6.468429116287658E-01  -6.388076999313944E-01  -6.308723032368028E-01
  -6.230354816231103E-01  -6.152960105709983E-01  -6.076526807723673E-01
  -6.001042979413848E-01  -5.926496826278785E-01  -5.852876700330369E-01
  -5.780171098274159E-01  -5.708368659711908E-01  -5.637458165366488E-01
  -5.567428535328917E-01  -5.498268827327001E-01  -5.429968235015681E-01
  -5.362516086288437E-01  -5.295901841609788E-01  -5.230115092368498E-01
  -5.165145559251131E-01  -5.100983090635979E-01  -5.037617661006769E-01
  -4.975039369386193E-01  -4.913238437788890E-01  -4.852205209693544E-01
  -4.791930148534109E-01  -4.732403836209640E-01  -4.673616971612722E-01
  -4.615560369176173E-01  -4.558224957437730E-01  -4.501601777622676E-01
  -4.445681982243954E-01  -4.390456833719760E-01  -4.335917703008297E-01
  -4.282056068259414E-01  -4.228863513483117E-01  -4.176331727234490E-01
  -4.124452501315047E-01  -4.073217729490206E-01  -4.022619406222617E-01
  -3.972649625421340E-01  -3.923300579206455E-01  -3.874564556689080E-01
  -3.826433942766557E-01  -3.778901216932525E-01  -3.731958952101879E-01
  -3.685599813450229E-01  -3.639816557267834E-01  -3.594602029827785E-01
  -3.549949166268163E-01  -3.505850989488205E-01  -3.462300609058064E-01
  -3.419291220142186E-01  -3.376816102436066E-01  -3.334868619116128E-01
  -3.293442215802777E-01  -3.252530419536207E-01  -3.212126837765006E-01
  -3.172225157347336E-01  -3.132819143564437E-01  -3.093902639146496E-01
  -3.055469563310515E-01  -3.017513910810197E-01  -2.980029750997630E-01
  -2.943011226896566E-01  -2.906452554287313E-01  -2.870348020802892E-01
  -2.834691985036484E-01  -2.799478875659969E-01  -2.764703190553354E-01
  -2.730359495945102E-01  -2.696442425563051E-01  -2.662946679795942E-01
  -2.629867024865363E-01  -2.597198292007921E-01  -2.564935376667651E-01
  -2.533073237698388E-01  -2.501606896576088E-01  -2.470531436620940E-01
  -2.439842002229095E-01  -2.409533798114000E-01  -2.379602088557095E-01
  -2.350042196667860E-01  -2.320849503653057E-01  -2.292019448095002E-01
  -2.263547525238863E-01  -2.235429286288768E-01  -2.207660337712666E-01
  -2.180236340555857E-01  -2.153153009762980E-01  -2.126406113508507E-01
  -2.099991472535476E-01  -2.073904959502491E-01  -2.048142498338826E-01
  -2.022700063607498E-01  -1.997573679876330E-01  -1.972759421096737E-01
  -1.948253409990297E-01  -1.924051817442923E-01  -1.900150861906535E-01
  -1.876546808808212E-01  -1.853235969966628E-01  -1.830214703015785E-01
  -1.807479410835893E-01  -1.785026540991287E-01  -1.762852585175378E-01
  -1.740954078662454E-01  -1.719327599766317E-01  -1.697969769305645E-01
  -1.676877250075971E-01  -1.656046746328257E-01  -1.635475003253911E-01
  -1.615158806476219E-01  -1.595094981548108E-01  -1.575280393456108E-01
  -1.555711946130520E-01  -1.536386581961636E-01  -1.517301281321984E-01
  -1.498453062094514E-01  -1.479838979206620E-01  -1.461456124169986E-01
  -1.443301624626109E-01  -1.425372643897496E-01  -1.407666380544440E-01
  -1.390180067927259E-01  -1.372910973774038E-01  -1.355856399753679E-01
  -1.339013681054289E-01  -1.322380185966812E-01  -1.305953315473792E-01
  -1.289730502843301E-01  -1.273709213227855E-01  -1.257886943268356E-01
  -1.242261220702936E-01  -1.226829603980648E-01  -1.211589681879989E-01
    </PP_AE_VLOC>
  </PP_PAW>
</UPF>
