&CONTROL
  calculation = 'scf'
  restart_mode = 'from_scratch'
  pseudo_dir = './'
  outdir = './tmp'
  verbosity = 'high'
  disk_io = 'none'
  tprnfor = .true.
  tstress = .true.
/

&SYSTEM
  ibrav = 0
  A = 5.62000
  nat = 2
  ntyp = 2
  ecutwfc = 40.0
  ecutrho = 160.0
  ecutfock = 100.0
  input_dft = 'hf-noc'
  nqx1 = 1
  nqx2 = 1
  nqx3 = 1
  x_gamma_extrapolation = .true.
  exxdiv_treatment = 'gygi-baldereschi'
  ace = .false.
  occupations = 'smearing'
  smearing = 'fd'
  degauss = 0.01
/

&ELECTRONS
  startingwfc = 'random'
  electron_maxstep = 100
  mixing_beta = 0.1
/

ATOMIC_SPECIES
  As   74.92100  As.upf
  Al   26.98100  Al.upf

ATOMIC_POSITIONS crystal
As   0.250000000000000   0.250000000000000   0.250000000000000 
Al   0.100000000000000   0.000000000000000   0.000000000000000 

K_POINTS automatic
3 3 3 0 0 0

CELL_PARAMETERS alat
  0.500000000000000   0.500000000000000   0.000000000000000 
  0.500000000000000   0.000000000000000   0.500000000000000 
  0.000000000000000   0.500000000000000   0.500000000000000 


