Ta As
 1.0000000000000000
     3.4696139977410336    0.0000000000000000    0.0000000000000000
     0.0000000009593282    3.4696139977410327    0.0000000000000000
    -1.7348069988705173   -1.7348069993501816    5.8674449964211588
 Ta  As 
   2   2
Cartesian
  0.0000000007194345  1.7348069986307453  2.9329714652510379
  0.0000000004796024 -0.0000000004796037  5.8666939634616178
  1.7348069990314572 -0.0000000001609412  1.9686920847591989
  1.7348069997509530  1.7348069984697430  4.9024145829697785
