&CONTROL
  calculation = 'scf'
  restart_mode = 'from_scratch'
  pseudo_dir = './'
  outdir = './tmp'
  verbosity = 'high'
  disk_io = 'none'
  tprnfor = .true.
/

&SYSTEM
  ibrav = 0
  nat = 1
  ntyp = 1
  ecutwfc = 40.0
  nbnd = 7
  input_dft = 'slater+vwn'
  occupations = 'smearing'
  smearing = 'fermi-dirac'
  degauss = 0.002
  nspin = 2
  starting_magnetization(1) = 0.400000
/

&ELECTRONS
  electron_maxstep = 150
  mixing_beta = 0.700000
  conv_thr = 2.0000000000e-06
/

ATOMIC_SPECIES
   Al 26.98 Al.pz-hgh.UPF

ATOMIC_POSITIONS bohr
Al       0.0000000000       0.0000000000       0.0000000000

K_POINTS automatic
4 4 4 0 0 0

CELL_PARAMETERS bohr
 -3.8263  0.0     -3.8263
  0.0     3.8263   3.8263
  3.8263  3.8263   0.0


