Ta4 As4
1.0
3.469614 0.000000 0.000000
0.000000 3.469614 0.000000
0.000000 0.000000 11.734890
Ta As
4 4
direct
0.500000 0.000000 0.249936 Ta
0.500000 0.500000 0.999936 Ta
0.000000 0.500000 0.749936 Ta
0.000000 0.000000 0.499936 Ta
0.000000 0.500000 0.167764 As
0.000000 0.000000 0.917764 As
0.500000 0.000000 0.667764 As
0.500000 0.500000 0.417764 As
